&inputpp 
   outdir = './'
   prefix = 'Co'
   seedname = 'Coup'
   spin_component = 'up'
   write_mmn = .true.
   write_amn = .true.
   write_uHu = .false.
   write_unk = .false.
/
