 &control
    calculation='nscf'
    pseudo_dir = '.',
    outdir='.'
    prefix='Fe'
    verbosity = 'high'
 /
 &system
    ibrav = 3, celldm(1) =5.4235, nat= 1, ntyp= 1,
    ecutwfc = 80.0
    lspinorb=.true.,
    noncolin=.true.,
    starting_magnetization(1) = -1,
    nbnd=64
    occupations='smearing', smearing='cold', degauss=0.02
    nosym=.true.
 /
 &electrons
    diagonalization='david'
    conv_thr=1.0e-10
 /
ATOMIC_SPECIES
 Fe 55.85 Fe.upf
ATOMIC_POSITIONS
 Fe 0.0 0.0 0.0
K_POINTS crystal
4096
  0.00000000  0.00000000  0.00000000  2.441406e-04
  0.00000000  0.00000000  0.06250000  2.441406e-04
  0.00000000  0.00000000  0.12500000  2.441406e-04
  0.00000000  0.00000000  0.18750000  2.441406e-04
  0.00000000  0.00000000  0.25000000  2.441406e-04
  0.00000000  0.00000000  0.31250000  2.441406e-04
  0.00000000  0.00000000  0.37500000  2.441406e-04
  0.00000000  0.00000000  0.43750000  2.441406e-04
  0.00000000  0.00000000  0.50000000  2.441406e-04
  0.00000000  0.00000000  0.56250000  2.441406e-04
  0.00000000  0.00000000  0.62500000  2.441406e-04
  0.00000000  0.00000000  0.68750000  2.441406e-04
  0.00000000  0.00000000  0.75000000  2.441406e-04
  0.00000000  0.00000000  0.81250000  2.441406e-04
  0.00000000  0.00000000  0.87500000  2.441406e-04
  0.00000000  0.00000000  0.93750000  2.441406e-04
  0.00000000  0.06250000  0.00000000  2.441406e-04
  0.00000000  0.06250000  0.06250000  2.441406e-04
  0.00000000  0.06250000  0.12500000  2.441406e-04
  0.00000000  0.06250000  0.18750000  2.441406e-04
  0.00000000  0.06250000  0.25000000  2.441406e-04
  0.00000000  0.06250000  0.31250000  2.441406e-04
  0.00000000  0.06250000  0.37500000  2.441406e-04
  0.00000000  0.06250000  0.43750000  2.441406e-04
  0.00000000  0.06250000  0.50000000  2.441406e-04
  0.00000000  0.06250000  0.56250000  2.441406e-04
  0.00000000  0.06250000  0.62500000  2.441406e-04
  0.00000000  0.06250000  0.68750000  2.441406e-04
  0.00000000  0.06250000  0.75000000  2.441406e-04
  0.00000000  0.06250000  0.81250000  2.441406e-04
  0.00000000  0.06250000  0.87500000  2.441406e-04
  0.00000000  0.06250000  0.93750000  2.441406e-04
  0.00000000  0.12500000  0.00000000  2.441406e-04
  0.00000000  0.12500000  0.06250000  2.441406e-04
  0.00000000  0.12500000  0.12500000  2.441406e-04
  0.00000000  0.12500000  0.18750000  2.441406e-04
  0.00000000  0.12500000  0.25000000  2.441406e-04
  0.00000000  0.12500000  0.31250000  2.441406e-04
  0.00000000  0.12500000  0.37500000  2.441406e-04
  0.00000000  0.12500000  0.43750000  2.441406e-04
  0.00000000  0.12500000  0.50000000  2.441406e-04
  0.00000000  0.12500000  0.56250000  2.441406e-04
  0.00000000  0.12500000  0.62500000  2.441406e-04
  0.00000000  0.12500000  0.68750000  2.441406e-04
  0.00000000  0.12500000  0.75000000  2.441406e-04
  0.00000000  0.12500000  0.81250000  2.441406e-04
  0.00000000  0.12500000  0.87500000  2.441406e-04
  0.00000000  0.12500000  0.93750000  2.441406e-04
  0.00000000  0.18750000  0.00000000  2.441406e-04
  0.00000000  0.18750000  0.06250000  2.441406e-04
  0.00000000  0.18750000  0.12500000  2.441406e-04
  0.00000000  0.18750000  0.18750000  2.441406e-04
  0.00000000  0.18750000  0.25000000  2.441406e-04
  0.00000000  0.18750000  0.31250000  2.441406e-04
  0.00000000  0.18750000  0.37500000  2.441406e-04
  0.00000000  0.18750000  0.43750000  2.441406e-04
  0.00000000  0.18750000  0.50000000  2.441406e-04
  0.00000000  0.18750000  0.56250000  2.441406e-04
  0.00000000  0.18750000  0.62500000  2.441406e-04
  0.00000000  0.18750000  0.68750000  2.441406e-04
  0.00000000  0.18750000  0.75000000  2.441406e-04
  0.00000000  0.18750000  0.81250000  2.441406e-04
  0.00000000  0.18750000  0.87500000  2.441406e-04
  0.00000000  0.18750000  0.93750000  2.441406e-04
  0.00000000  0.25000000  0.00000000  2.441406e-04
  0.00000000  0.25000000  0.06250000  2.441406e-04
  0.00000000  0.25000000  0.12500000  2.441406e-04
  0.00000000  0.25000000  0.18750000  2.441406e-04
  0.00000000  0.25000000  0.25000000  2.441406e-04
  0.00000000  0.25000000  0.31250000  2.441406e-04
  0.00000000  0.25000000  0.37500000  2.441406e-04
  0.00000000  0.25000000  0.43750000  2.441406e-04
  0.00000000  0.25000000  0.50000000  2.441406e-04
  0.00000000  0.25000000  0.56250000  2.441406e-04
  0.00000000  0.25000000  0.62500000  2.441406e-04
  0.00000000  0.25000000  0.68750000  2.441406e-04
  0.00000000  0.25000000  0.75000000  2.441406e-04
  0.00000000  0.25000000  0.81250000  2.441406e-04
  0.00000000  0.25000000  0.87500000  2.441406e-04
  0.00000000  0.25000000  0.93750000  2.441406e-04
  0.00000000  0.31250000  0.00000000  2.441406e-04
  0.00000000  0.31250000  0.06250000  2.441406e-04
  0.00000000  0.31250000  0.12500000  2.441406e-04
  0.00000000  0.31250000  0.18750000  2.441406e-04
  0.00000000  0.31250000  0.25000000  2.441406e-04
  0.00000000  0.31250000  0.31250000  2.441406e-04
  0.00000000  0.31250000  0.37500000  2.441406e-04
  0.00000000  0.31250000  0.43750000  2.441406e-04
  0.00000000  0.31250000  0.50000000  2.441406e-04
  0.00000000  0.31250000  0.56250000  2.441406e-04
  0.00000000  0.31250000  0.62500000  2.441406e-04
  0.00000000  0.31250000  0.68750000  2.441406e-04
  0.00000000  0.31250000  0.75000000  2.441406e-04
  0.00000000  0.31250000  0.81250000  2.441406e-04
  0.00000000  0.31250000  0.87500000  2.441406e-04
  0.00000000  0.31250000  0.93750000  2.441406e-04
  0.00000000  0.37500000  0.00000000  2.441406e-04
  0.00000000  0.37500000  0.06250000  2.441406e-04
  0.00000000  0.37500000  0.12500000  2.441406e-04
  0.00000000  0.37500000  0.18750000  2.441406e-04
  0.00000000  0.37500000  0.25000000  2.441406e-04
  0.00000000  0.37500000  0.31250000  2.441406e-04
  0.00000000  0.37500000  0.37500000  2.441406e-04
  0.00000000  0.37500000  0.43750000  2.441406e-04
  0.00000000  0.37500000  0.50000000  2.441406e-04
  0.00000000  0.37500000  0.56250000  2.441406e-04
  0.00000000  0.37500000  0.62500000  2.441406e-04
  0.00000000  0.37500000  0.68750000  2.441406e-04
  0.00000000  0.37500000  0.75000000  2.441406e-04
  0.00000000  0.37500000  0.81250000  2.441406e-04
  0.00000000  0.37500000  0.87500000  2.441406e-04
  0.00000000  0.37500000  0.93750000  2.441406e-04
  0.00000000  0.43750000  0.00000000  2.441406e-04
  0.00000000  0.43750000  0.06250000  2.441406e-04
  0.00000000  0.43750000  0.12500000  2.441406e-04
  0.00000000  0.43750000  0.18750000  2.441406e-04
  0.00000000  0.43750000  0.25000000  2.441406e-04
  0.00000000  0.43750000  0.31250000  2.441406e-04
  0.00000000  0.43750000  0.37500000  2.441406e-04
  0.00000000  0.43750000  0.43750000  2.441406e-04
  0.00000000  0.43750000  0.50000000  2.441406e-04
  0.00000000  0.43750000  0.56250000  2.441406e-04
  0.00000000  0.43750000  0.62500000  2.441406e-04
  0.00000000  0.43750000  0.68750000  2.441406e-04
  0.00000000  0.43750000  0.75000000  2.441406e-04
  0.00000000  0.43750000  0.81250000  2.441406e-04
  0.00000000  0.43750000  0.87500000  2.441406e-04
  0.00000000  0.43750000  0.93750000  2.441406e-04
  0.00000000  0.50000000  0.00000000  2.441406e-04
  0.00000000  0.50000000  0.06250000  2.441406e-04
  0.00000000  0.50000000  0.12500000  2.441406e-04
  0.00000000  0.50000000  0.18750000  2.441406e-04
  0.00000000  0.50000000  0.25000000  2.441406e-04
  0.00000000  0.50000000  0.31250000  2.441406e-04
  0.00000000  0.50000000  0.37500000  2.441406e-04
  0.00000000  0.50000000  0.43750000  2.441406e-04
  0.00000000  0.50000000  0.50000000  2.441406e-04
  0.00000000  0.50000000  0.56250000  2.441406e-04
  0.00000000  0.50000000  0.62500000  2.441406e-04
  0.00000000  0.50000000  0.68750000  2.441406e-04
  0.00000000  0.50000000  0.75000000  2.441406e-04
  0.00000000  0.50000000  0.81250000  2.441406e-04
  0.00000000  0.50000000  0.87500000  2.441406e-04
  0.00000000  0.50000000  0.93750000  2.441406e-04
  0.00000000  0.56250000  0.00000000  2.441406e-04
  0.00000000  0.56250000  0.06250000  2.441406e-04
  0.00000000  0.56250000  0.12500000  2.441406e-04
  0.00000000  0.56250000  0.18750000  2.441406e-04
  0.00000000  0.56250000  0.25000000  2.441406e-04
  0.00000000  0.56250000  0.31250000  2.441406e-04
  0.00000000  0.56250000  0.37500000  2.441406e-04
  0.00000000  0.56250000  0.43750000  2.441406e-04
  0.00000000  0.56250000  0.50000000  2.441406e-04
  0.00000000  0.56250000  0.56250000  2.441406e-04
  0.00000000  0.56250000  0.62500000  2.441406e-04
  0.00000000  0.56250000  0.68750000  2.441406e-04
  0.00000000  0.56250000  0.75000000  2.441406e-04
  0.00000000  0.56250000  0.81250000  2.441406e-04
  0.00000000  0.56250000  0.87500000  2.441406e-04
  0.00000000  0.56250000  0.93750000  2.441406e-04
  0.00000000  0.62500000  0.00000000  2.441406e-04
  0.00000000  0.62500000  0.06250000  2.441406e-04
  0.00000000  0.62500000  0.12500000  2.441406e-04
  0.00000000  0.62500000  0.18750000  2.441406e-04
  0.00000000  0.62500000  0.25000000  2.441406e-04
  0.00000000  0.62500000  0.31250000  2.441406e-04
  0.00000000  0.62500000  0.37500000  2.441406e-04
  0.00000000  0.62500000  0.43750000  2.441406e-04
  0.00000000  0.62500000  0.50000000  2.441406e-04
  0.00000000  0.62500000  0.56250000  2.441406e-04
  0.00000000  0.62500000  0.62500000  2.441406e-04
  0.00000000  0.62500000  0.68750000  2.441406e-04
  0.00000000  0.62500000  0.75000000  2.441406e-04
  0.00000000  0.62500000  0.81250000  2.441406e-04
  0.00000000  0.62500000  0.87500000  2.441406e-04
  0.00000000  0.62500000  0.93750000  2.441406e-04
  0.00000000  0.68750000  0.00000000  2.441406e-04
  0.00000000  0.68750000  0.06250000  2.441406e-04
  0.00000000  0.68750000  0.12500000  2.441406e-04
  0.00000000  0.68750000  0.18750000  2.441406e-04
  0.00000000  0.68750000  0.25000000  2.441406e-04
  0.00000000  0.68750000  0.31250000  2.441406e-04
  0.00000000  0.68750000  0.37500000  2.441406e-04
  0.00000000  0.68750000  0.43750000  2.441406e-04
  0.00000000  0.68750000  0.50000000  2.441406e-04
  0.00000000  0.68750000  0.56250000  2.441406e-04
  0.00000000  0.68750000  0.62500000  2.441406e-04
  0.00000000  0.68750000  0.68750000  2.441406e-04
  0.00000000  0.68750000  0.75000000  2.441406e-04
  0.00000000  0.68750000  0.81250000  2.441406e-04
  0.00000000  0.68750000  0.87500000  2.441406e-04
  0.00000000  0.68750000  0.93750000  2.441406e-04
  0.00000000  0.75000000  0.00000000  2.441406e-04
  0.00000000  0.75000000  0.06250000  2.441406e-04
  0.00000000  0.75000000  0.12500000  2.441406e-04
  0.00000000  0.75000000  0.18750000  2.441406e-04
  0.00000000  0.75000000  0.25000000  2.441406e-04
  0.00000000  0.75000000  0.31250000  2.441406e-04
  0.00000000  0.75000000  0.37500000  2.441406e-04
  0.00000000  0.75000000  0.43750000  2.441406e-04
  0.00000000  0.75000000  0.50000000  2.441406e-04
  0.00000000  0.75000000  0.56250000  2.441406e-04
  0.00000000  0.75000000  0.62500000  2.441406e-04
  0.00000000  0.75000000  0.68750000  2.441406e-04
  0.00000000  0.75000000  0.75000000  2.441406e-04
  0.00000000  0.75000000  0.81250000  2.441406e-04
  0.00000000  0.75000000  0.87500000  2.441406e-04
  0.00000000  0.75000000  0.93750000  2.441406e-04
  0.00000000  0.81250000  0.00000000  2.441406e-04
  0.00000000  0.81250000  0.06250000  2.441406e-04
  0.00000000  0.81250000  0.12500000  2.441406e-04
  0.00000000  0.81250000  0.18750000  2.441406e-04
  0.00000000  0.81250000  0.25000000  2.441406e-04
  0.00000000  0.81250000  0.31250000  2.441406e-04
  0.00000000  0.81250000  0.37500000  2.441406e-04
  0.00000000  0.81250000  0.43750000  2.441406e-04
  0.00000000  0.81250000  0.50000000  2.441406e-04
  0.00000000  0.81250000  0.56250000  2.441406e-04
  0.00000000  0.81250000  0.62500000  2.441406e-04
  0.00000000  0.81250000  0.68750000  2.441406e-04
  0.00000000  0.81250000  0.75000000  2.441406e-04
  0.00000000  0.81250000  0.81250000  2.441406e-04
  0.00000000  0.81250000  0.87500000  2.441406e-04
  0.00000000  0.81250000  0.93750000  2.441406e-04
  0.00000000  0.87500000  0.00000000  2.441406e-04
  0.00000000  0.87500000  0.06250000  2.441406e-04
  0.00000000  0.87500000  0.12500000  2.441406e-04
  0.00000000  0.87500000  0.18750000  2.441406e-04
  0.00000000  0.87500000  0.25000000  2.441406e-04
  0.00000000  0.87500000  0.31250000  2.441406e-04
  0.00000000  0.87500000  0.37500000  2.441406e-04
  0.00000000  0.87500000  0.43750000  2.441406e-04
  0.00000000  0.87500000  0.50000000  2.441406e-04
  0.00000000  0.87500000  0.56250000  2.441406e-04
  0.00000000  0.87500000  0.62500000  2.441406e-04
  0.00000000  0.87500000  0.68750000  2.441406e-04
  0.00000000  0.87500000  0.75000000  2.441406e-04
  0.00000000  0.87500000  0.81250000  2.441406e-04
  0.00000000  0.87500000  0.87500000  2.441406e-04
  0.00000000  0.87500000  0.93750000  2.441406e-04
  0.00000000  0.93750000  0.00000000  2.441406e-04
  0.00000000  0.93750000  0.06250000  2.441406e-04
  0.00000000  0.93750000  0.12500000  2.441406e-04
  0.00000000  0.93750000  0.18750000  2.441406e-04
  0.00000000  0.93750000  0.25000000  2.441406e-04
  0.00000000  0.93750000  0.31250000  2.441406e-04
  0.00000000  0.93750000  0.37500000  2.441406e-04
  0.00000000  0.93750000  0.43750000  2.441406e-04
  0.00000000  0.93750000  0.50000000  2.441406e-04
  0.00000000  0.93750000  0.56250000  2.441406e-04
  0.00000000  0.93750000  0.62500000  2.441406e-04
  0.00000000  0.93750000  0.68750000  2.441406e-04
  0.00000000  0.93750000  0.75000000  2.441406e-04
  0.00000000  0.93750000  0.81250000  2.441406e-04
  0.00000000  0.93750000  0.87500000  2.441406e-04
  0.00000000  0.93750000  0.93750000  2.441406e-04
  0.06250000  0.00000000  0.00000000  2.441406e-04
  0.06250000  0.00000000  0.06250000  2.441406e-04
  0.06250000  0.00000000  0.12500000  2.441406e-04
  0.06250000  0.00000000  0.18750000  2.441406e-04
  0.06250000  0.00000000  0.25000000  2.441406e-04
  0.06250000  0.00000000  0.31250000  2.441406e-04
  0.06250000  0.00000000  0.37500000  2.441406e-04
  0.06250000  0.00000000  0.43750000  2.441406e-04
  0.06250000  0.00000000  0.50000000  2.441406e-04
  0.06250000  0.00000000  0.56250000  2.441406e-04
  0.06250000  0.00000000  0.62500000  2.441406e-04
  0.06250000  0.00000000  0.68750000  2.441406e-04
  0.06250000  0.00000000  0.75000000  2.441406e-04
  0.06250000  0.00000000  0.81250000  2.441406e-04
  0.06250000  0.00000000  0.87500000  2.441406e-04
  0.06250000  0.00000000  0.93750000  2.441406e-04
  0.06250000  0.06250000  0.00000000  2.441406e-04
  0.06250000  0.06250000  0.06250000  2.441406e-04
  0.06250000  0.06250000  0.12500000  2.441406e-04
  0.06250000  0.06250000  0.18750000  2.441406e-04
  0.06250000  0.06250000  0.25000000  2.441406e-04
  0.06250000  0.06250000  0.31250000  2.441406e-04
  0.06250000  0.06250000  0.37500000  2.441406e-04
  0.06250000  0.06250000  0.43750000  2.441406e-04
  0.06250000  0.06250000  0.50000000  2.441406e-04
  0.06250000  0.06250000  0.56250000  2.441406e-04
  0.06250000  0.06250000  0.62500000  2.441406e-04
  0.06250000  0.06250000  0.68750000  2.441406e-04
  0.06250000  0.06250000  0.75000000  2.441406e-04
  0.06250000  0.06250000  0.81250000  2.441406e-04
  0.06250000  0.06250000  0.87500000  2.441406e-04
  0.06250000  0.06250000  0.93750000  2.441406e-04
  0.06250000  0.12500000  0.00000000  2.441406e-04
  0.06250000  0.12500000  0.06250000  2.441406e-04
  0.06250000  0.12500000  0.12500000  2.441406e-04
  0.06250000  0.12500000  0.18750000  2.441406e-04
  0.06250000  0.12500000  0.25000000  2.441406e-04
  0.06250000  0.12500000  0.31250000  2.441406e-04
  0.06250000  0.12500000  0.37500000  2.441406e-04
  0.06250000  0.12500000  0.43750000  2.441406e-04
  0.06250000  0.12500000  0.50000000  2.441406e-04
  0.06250000  0.12500000  0.56250000  2.441406e-04
  0.06250000  0.12500000  0.62500000  2.441406e-04
  0.06250000  0.12500000  0.68750000  2.441406e-04
  0.06250000  0.12500000  0.75000000  2.441406e-04
  0.06250000  0.12500000  0.81250000  2.441406e-04
  0.06250000  0.12500000  0.87500000  2.441406e-04
  0.06250000  0.12500000  0.93750000  2.441406e-04
  0.06250000  0.18750000  0.00000000  2.441406e-04
  0.06250000  0.18750000  0.06250000  2.441406e-04
  0.06250000  0.18750000  0.12500000  2.441406e-04
  0.06250000  0.18750000  0.18750000  2.441406e-04
  0.06250000  0.18750000  0.25000000  2.441406e-04
  0.06250000  0.18750000  0.31250000  2.441406e-04
  0.06250000  0.18750000  0.37500000  2.441406e-04
  0.06250000  0.18750000  0.43750000  2.441406e-04
  0.06250000  0.18750000  0.50000000  2.441406e-04
  0.06250000  0.18750000  0.56250000  2.441406e-04
  0.06250000  0.18750000  0.62500000  2.441406e-04
  0.06250000  0.18750000  0.68750000  2.441406e-04
  0.06250000  0.18750000  0.75000000  2.441406e-04
  0.06250000  0.18750000  0.81250000  2.441406e-04
  0.06250000  0.18750000  0.87500000  2.441406e-04
  0.06250000  0.18750000  0.93750000  2.441406e-04
  0.06250000  0.25000000  0.00000000  2.441406e-04
  0.06250000  0.25000000  0.06250000  2.441406e-04
  0.06250000  0.25000000  0.12500000  2.441406e-04
  0.06250000  0.25000000  0.18750000  2.441406e-04
  0.06250000  0.25000000  0.25000000  2.441406e-04
  0.06250000  0.25000000  0.31250000  2.441406e-04
  0.06250000  0.25000000  0.37500000  2.441406e-04
  0.06250000  0.25000000  0.43750000  2.441406e-04
  0.06250000  0.25000000  0.50000000  2.441406e-04
  0.06250000  0.25000000  0.56250000  2.441406e-04
  0.06250000  0.25000000  0.62500000  2.441406e-04
  0.06250000  0.25000000  0.68750000  2.441406e-04
  0.06250000  0.25000000  0.75000000  2.441406e-04
  0.06250000  0.25000000  0.81250000  2.441406e-04
  0.06250000  0.25000000  0.87500000  2.441406e-04
  0.06250000  0.25000000  0.93750000  2.441406e-04
  0.06250000  0.31250000  0.00000000  2.441406e-04
  0.06250000  0.31250000  0.06250000  2.441406e-04
  0.06250000  0.31250000  0.12500000  2.441406e-04
  0.06250000  0.31250000  0.18750000  2.441406e-04
  0.06250000  0.31250000  0.25000000  2.441406e-04
  0.06250000  0.31250000  0.31250000  2.441406e-04
  0.06250000  0.31250000  0.37500000  2.441406e-04
  0.06250000  0.31250000  0.43750000  2.441406e-04
  0.06250000  0.31250000  0.50000000  2.441406e-04
  0.06250000  0.31250000  0.56250000  2.441406e-04
  0.06250000  0.31250000  0.62500000  2.441406e-04
  0.06250000  0.31250000  0.68750000  2.441406e-04
  0.06250000  0.31250000  0.75000000  2.441406e-04
  0.06250000  0.31250000  0.81250000  2.441406e-04
  0.06250000  0.31250000  0.87500000  2.441406e-04
  0.06250000  0.31250000  0.93750000  2.441406e-04
  0.06250000  0.37500000  0.00000000  2.441406e-04
  0.06250000  0.37500000  0.06250000  2.441406e-04
  0.06250000  0.37500000  0.12500000  2.441406e-04
  0.06250000  0.37500000  0.18750000  2.441406e-04
  0.06250000  0.37500000  0.25000000  2.441406e-04
  0.06250000  0.37500000  0.31250000  2.441406e-04
  0.06250000  0.37500000  0.37500000  2.441406e-04
  0.06250000  0.37500000  0.43750000  2.441406e-04
  0.06250000  0.37500000  0.50000000  2.441406e-04
  0.06250000  0.37500000  0.56250000  2.441406e-04
  0.06250000  0.37500000  0.62500000  2.441406e-04
  0.06250000  0.37500000  0.68750000  2.441406e-04
  0.06250000  0.37500000  0.75000000  2.441406e-04
  0.06250000  0.37500000  0.81250000  2.441406e-04
  0.06250000  0.37500000  0.87500000  2.441406e-04
  0.06250000  0.37500000  0.93750000  2.441406e-04
  0.06250000  0.43750000  0.00000000  2.441406e-04
  0.06250000  0.43750000  0.06250000  2.441406e-04
  0.06250000  0.43750000  0.12500000  2.441406e-04
  0.06250000  0.43750000  0.18750000  2.441406e-04
  0.06250000  0.43750000  0.25000000  2.441406e-04
  0.06250000  0.43750000  0.31250000  2.441406e-04
  0.06250000  0.43750000  0.37500000  2.441406e-04
  0.06250000  0.43750000  0.43750000  2.441406e-04
  0.06250000  0.43750000  0.50000000  2.441406e-04
  0.06250000  0.43750000  0.56250000  2.441406e-04
  0.06250000  0.43750000  0.62500000  2.441406e-04
  0.06250000  0.43750000  0.68750000  2.441406e-04
  0.06250000  0.43750000  0.75000000  2.441406e-04
  0.06250000  0.43750000  0.81250000  2.441406e-04
  0.06250000  0.43750000  0.87500000  2.441406e-04
  0.06250000  0.43750000  0.93750000  2.441406e-04
  0.06250000  0.50000000  0.00000000  2.441406e-04
  0.06250000  0.50000000  0.06250000  2.441406e-04
  0.06250000  0.50000000  0.12500000  2.441406e-04
  0.06250000  0.50000000  0.18750000  2.441406e-04
  0.06250000  0.50000000  0.25000000  2.441406e-04
  0.06250000  0.50000000  0.31250000  2.441406e-04
  0.06250000  0.50000000  0.37500000  2.441406e-04
  0.06250000  0.50000000  0.43750000  2.441406e-04
  0.06250000  0.50000000  0.50000000  2.441406e-04
  0.06250000  0.50000000  0.56250000  2.441406e-04
  0.06250000  0.50000000  0.62500000  2.441406e-04
  0.06250000  0.50000000  0.68750000  2.441406e-04
  0.06250000  0.50000000  0.75000000  2.441406e-04
  0.06250000  0.50000000  0.81250000  2.441406e-04
  0.06250000  0.50000000  0.87500000  2.441406e-04
  0.06250000  0.50000000  0.93750000  2.441406e-04
  0.06250000  0.56250000  0.00000000  2.441406e-04
  0.06250000  0.56250000  0.06250000  2.441406e-04
  0.06250000  0.56250000  0.12500000  2.441406e-04
  0.06250000  0.56250000  0.18750000  2.441406e-04
  0.06250000  0.56250000  0.25000000  2.441406e-04
  0.06250000  0.56250000  0.31250000  2.441406e-04
  0.06250000  0.56250000  0.37500000  2.441406e-04
  0.06250000  0.56250000  0.43750000  2.441406e-04
  0.06250000  0.56250000  0.50000000  2.441406e-04
  0.06250000  0.56250000  0.56250000  2.441406e-04
  0.06250000  0.56250000  0.62500000  2.441406e-04
  0.06250000  0.56250000  0.68750000  2.441406e-04
  0.06250000  0.56250000  0.75000000  2.441406e-04
  0.06250000  0.56250000  0.81250000  2.441406e-04
  0.06250000  0.56250000  0.87500000  2.441406e-04
  0.06250000  0.56250000  0.93750000  2.441406e-04
  0.06250000  0.62500000  0.00000000  2.441406e-04
  0.06250000  0.62500000  0.06250000  2.441406e-04
  0.06250000  0.62500000  0.12500000  2.441406e-04
  0.06250000  0.62500000  0.18750000  2.441406e-04
  0.06250000  0.62500000  0.25000000  2.441406e-04
  0.06250000  0.62500000  0.31250000  2.441406e-04
  0.06250000  0.62500000  0.37500000  2.441406e-04
  0.06250000  0.62500000  0.43750000  2.441406e-04
  0.06250000  0.62500000  0.50000000  2.441406e-04
  0.06250000  0.62500000  0.56250000  2.441406e-04
  0.06250000  0.62500000  0.62500000  2.441406e-04
  0.06250000  0.62500000  0.68750000  2.441406e-04
  0.06250000  0.62500000  0.75000000  2.441406e-04
  0.06250000  0.62500000  0.81250000  2.441406e-04
  0.06250000  0.62500000  0.87500000  2.441406e-04
  0.06250000  0.62500000  0.93750000  2.441406e-04
  0.06250000  0.68750000  0.00000000  2.441406e-04
  0.06250000  0.68750000  0.06250000  2.441406e-04
  0.06250000  0.68750000  0.12500000  2.441406e-04
  0.06250000  0.68750000  0.18750000  2.441406e-04
  0.06250000  0.68750000  0.25000000  2.441406e-04
  0.06250000  0.68750000  0.31250000  2.441406e-04
  0.06250000  0.68750000  0.37500000  2.441406e-04
  0.06250000  0.68750000  0.43750000  2.441406e-04
  0.06250000  0.68750000  0.50000000  2.441406e-04
  0.06250000  0.68750000  0.56250000  2.441406e-04
  0.06250000  0.68750000  0.62500000  2.441406e-04
  0.06250000  0.68750000  0.68750000  2.441406e-04
  0.06250000  0.68750000  0.75000000  2.441406e-04
  0.06250000  0.68750000  0.81250000  2.441406e-04
  0.06250000  0.68750000  0.87500000  2.441406e-04
  0.06250000  0.68750000  0.93750000  2.441406e-04
  0.06250000  0.75000000  0.00000000  2.441406e-04
  0.06250000  0.75000000  0.06250000  2.441406e-04
  0.06250000  0.75000000  0.12500000  2.441406e-04
  0.06250000  0.75000000  0.18750000  2.441406e-04
  0.06250000  0.75000000  0.25000000  2.441406e-04
  0.06250000  0.75000000  0.31250000  2.441406e-04
  0.06250000  0.75000000  0.37500000  2.441406e-04
  0.06250000  0.75000000  0.43750000  2.441406e-04
  0.06250000  0.75000000  0.50000000  2.441406e-04
  0.06250000  0.75000000  0.56250000  2.441406e-04
  0.06250000  0.75000000  0.62500000  2.441406e-04
  0.06250000  0.75000000  0.68750000  2.441406e-04
  0.06250000  0.75000000  0.75000000  2.441406e-04
  0.06250000  0.75000000  0.81250000  2.441406e-04
  0.06250000  0.75000000  0.87500000  2.441406e-04
  0.06250000  0.75000000  0.93750000  2.441406e-04
  0.06250000  0.81250000  0.00000000  2.441406e-04
  0.06250000  0.81250000  0.06250000  2.441406e-04
  0.06250000  0.81250000  0.12500000  2.441406e-04
  0.06250000  0.81250000  0.18750000  2.441406e-04
  0.06250000  0.81250000  0.25000000  2.441406e-04
  0.06250000  0.81250000  0.31250000  2.441406e-04
  0.06250000  0.81250000  0.37500000  2.441406e-04
  0.06250000  0.81250000  0.43750000  2.441406e-04
  0.06250000  0.81250000  0.50000000  2.441406e-04
  0.06250000  0.81250000  0.56250000  2.441406e-04
  0.06250000  0.81250000  0.62500000  2.441406e-04
  0.06250000  0.81250000  0.68750000  2.441406e-04
  0.06250000  0.81250000  0.75000000  2.441406e-04
  0.06250000  0.81250000  0.81250000  2.441406e-04
  0.06250000  0.81250000  0.87500000  2.441406e-04
  0.06250000  0.81250000  0.93750000  2.441406e-04
  0.06250000  0.87500000  0.00000000  2.441406e-04
  0.06250000  0.87500000  0.06250000  2.441406e-04
  0.06250000  0.87500000  0.12500000  2.441406e-04
  0.06250000  0.87500000  0.18750000  2.441406e-04
  0.06250000  0.87500000  0.25000000  2.441406e-04
  0.06250000  0.87500000  0.31250000  2.441406e-04
  0.06250000  0.87500000  0.37500000  2.441406e-04
  0.06250000  0.87500000  0.43750000  2.441406e-04
  0.06250000  0.87500000  0.50000000  2.441406e-04
  0.06250000  0.87500000  0.56250000  2.441406e-04
  0.06250000  0.87500000  0.62500000  2.441406e-04
  0.06250000  0.87500000  0.68750000  2.441406e-04
  0.06250000  0.87500000  0.75000000  2.441406e-04
  0.06250000  0.87500000  0.81250000  2.441406e-04
  0.06250000  0.87500000  0.87500000  2.441406e-04
  0.06250000  0.87500000  0.93750000  2.441406e-04
  0.06250000  0.93750000  0.00000000  2.441406e-04
  0.06250000  0.93750000  0.06250000  2.441406e-04
  0.06250000  0.93750000  0.12500000  2.441406e-04
  0.06250000  0.93750000  0.18750000  2.441406e-04
  0.06250000  0.93750000  0.25000000  2.441406e-04
  0.06250000  0.93750000  0.31250000  2.441406e-04
  0.06250000  0.93750000  0.37500000  2.441406e-04
  0.06250000  0.93750000  0.43750000  2.441406e-04
  0.06250000  0.93750000  0.50000000  2.441406e-04
  0.06250000  0.93750000  0.56250000  2.441406e-04
  0.06250000  0.93750000  0.62500000  2.441406e-04
  0.06250000  0.93750000  0.68750000  2.441406e-04
  0.06250000  0.93750000  0.75000000  2.441406e-04
  0.06250000  0.93750000  0.81250000  2.441406e-04
  0.06250000  0.93750000  0.87500000  2.441406e-04
  0.06250000  0.93750000  0.93750000  2.441406e-04
  0.12500000  0.00000000  0.00000000  2.441406e-04
  0.12500000  0.00000000  0.06250000  2.441406e-04
  0.12500000  0.00000000  0.12500000  2.441406e-04
  0.12500000  0.00000000  0.18750000  2.441406e-04
  0.12500000  0.00000000  0.25000000  2.441406e-04
  0.12500000  0.00000000  0.31250000  2.441406e-04
  0.12500000  0.00000000  0.37500000  2.441406e-04
  0.12500000  0.00000000  0.43750000  2.441406e-04
  0.12500000  0.00000000  0.50000000  2.441406e-04
  0.12500000  0.00000000  0.56250000  2.441406e-04
  0.12500000  0.00000000  0.62500000  2.441406e-04
  0.12500000  0.00000000  0.68750000  2.441406e-04
  0.12500000  0.00000000  0.75000000  2.441406e-04
  0.12500000  0.00000000  0.81250000  2.441406e-04
  0.12500000  0.00000000  0.87500000  2.441406e-04
  0.12500000  0.00000000  0.93750000  2.441406e-04
  0.12500000  0.06250000  0.00000000  2.441406e-04
  0.12500000  0.06250000  0.06250000  2.441406e-04
  0.12500000  0.06250000  0.12500000  2.441406e-04
  0.12500000  0.06250000  0.18750000  2.441406e-04
  0.12500000  0.06250000  0.25000000  2.441406e-04
  0.12500000  0.06250000  0.31250000  2.441406e-04
  0.12500000  0.06250000  0.37500000  2.441406e-04
  0.12500000  0.06250000  0.43750000  2.441406e-04
  0.12500000  0.06250000  0.50000000  2.441406e-04
  0.12500000  0.06250000  0.56250000  2.441406e-04
  0.12500000  0.06250000  0.62500000  2.441406e-04
  0.12500000  0.06250000  0.68750000  2.441406e-04
  0.12500000  0.06250000  0.75000000  2.441406e-04
  0.12500000  0.06250000  0.81250000  2.441406e-04
  0.12500000  0.06250000  0.87500000  2.441406e-04
  0.12500000  0.06250000  0.93750000  2.441406e-04
  0.12500000  0.12500000  0.00000000  2.441406e-04
  0.12500000  0.12500000  0.06250000  2.441406e-04
  0.12500000  0.12500000  0.12500000  2.441406e-04
  0.12500000  0.12500000  0.18750000  2.441406e-04
  0.12500000  0.12500000  0.25000000  2.441406e-04
  0.12500000  0.12500000  0.31250000  2.441406e-04
  0.12500000  0.12500000  0.37500000  2.441406e-04
  0.12500000  0.12500000  0.43750000  2.441406e-04
  0.12500000  0.12500000  0.50000000  2.441406e-04
  0.12500000  0.12500000  0.56250000  2.441406e-04
  0.12500000  0.12500000  0.62500000  2.441406e-04
  0.12500000  0.12500000  0.68750000  2.441406e-04
  0.12500000  0.12500000  0.75000000  2.441406e-04
  0.12500000  0.12500000  0.81250000  2.441406e-04
  0.12500000  0.12500000  0.87500000  2.441406e-04
  0.12500000  0.12500000  0.93750000  2.441406e-04
  0.12500000  0.18750000  0.00000000  2.441406e-04
  0.12500000  0.18750000  0.06250000  2.441406e-04
  0.12500000  0.18750000  0.12500000  2.441406e-04
  0.12500000  0.18750000  0.18750000  2.441406e-04
  0.12500000  0.18750000  0.25000000  2.441406e-04
  0.12500000  0.18750000  0.31250000  2.441406e-04
  0.12500000  0.18750000  0.37500000  2.441406e-04
  0.12500000  0.18750000  0.43750000  2.441406e-04
  0.12500000  0.18750000  0.50000000  2.441406e-04
  0.12500000  0.18750000  0.56250000  2.441406e-04
  0.12500000  0.18750000  0.62500000  2.441406e-04
  0.12500000  0.18750000  0.68750000  2.441406e-04
  0.12500000  0.18750000  0.75000000  2.441406e-04
  0.12500000  0.18750000  0.81250000  2.441406e-04
  0.12500000  0.18750000  0.87500000  2.441406e-04
  0.12500000  0.18750000  0.93750000  2.441406e-04
  0.12500000  0.25000000  0.00000000  2.441406e-04
  0.12500000  0.25000000  0.06250000  2.441406e-04