num_bands         =   48
num_wann          =   18

dis_win_min       =  -8.0d0
#dis_win_max       = 70.0d0
dis_froz_min      =  -8.0d0
dis_froz_max      =  22.2d0
dis_num_iter      =  4000

num_iter          = 2000
dis_mix_ratio = 1.0

#spinors = T
begin projections
Co: s;p;d
end projections

#fermi_energy_min=12
#fermi_energy_max=13
#fermi_energy_step=0.01

#restart = plot
#bands_plot = true

#kpath_num_points=1000
begin kpoint_path
G 0.0000 0.0000 0.0000   M -0.500 0.5000  0.0000
M -0.500 0.5000 0.0000   K -0.6667 0.3333 0.0000
K -0.6667 0.3333 0.0000  G 0.0000 0.0000 0.0000
G 0.0000 0.0000 0.0000   A 0.0000 0.0000 0.500
A 0.0000 0.0000 0.500    L -0.5 0.5 0.5
L -0.5 0.5 0.5           H -0.6667 0.3333 0.5000
H -0.6667 0.3333 0.5000  A 0.0000 0.0000 0.500
end kpoint_path

#berry = false
#berry_task = ahc
#berry_kmesh = 24 24 24

begin unit_cell_cart
bohr
 4.73770000   0.00000000  0.00000000
-2.36885000   4.10297000  0.00000000
 0.00000000   0.00000000  7.69023464
end unit_cell_cart

begin atoms_frac
Co 0.3333333333 0.6666666667 0.25
Co 0.6666666667 0.3333333333 0.75
end atoms_frac

mp_grid           = 10 10 10

begin kpoints
  0.00000000  0.00000000  0.00000000
  0.00000000  0.00000000  0.10000000
  0.00000000  0.00000000  0.20000000
  0.00000000  0.00000000  0.30000000
  0.00000000  0.00000000  0.40000000
  0.00000000  0.00000000  0.50000000
  0.00000000  0.00000000  0.60000000
  0.00000000  0.00000000  0.70000000
  0.00000000  0.00000000  0.80000000
  0.00000000  0.00000000  0.90000000
  0.00000000  0.10000000  0.00000000
  0.00000000  0.10000000  0.10000000
  0.00000000  0.10000000  0.20000000
  0.00000000  0.10000000  0.30000000
  0.00000000  0.10000000  0.40000000
  0.00000000  0.10000000  0.50000000
  0.00000000  0.10000000  0.60000000
  0.00000000  0.10000000  0.70000000
  0.00000000  0.10000000  0.80000000
  0.00000000  0.10000000  0.90000000
  0.00000000  0.20000000  0.00000000
  0.00000000  0.20000000  0.10000000
  0.00000000  0.20000000  0.20000000
  0.00000000  0.20000000  0.30000000
  0.00000000  0.20000000  0.40000000
  0.00000000  0.20000000  0.50000000
  0.00000000  0.20000000  0.60000000
  0.00000000  0.20000000  0.70000000
  0.00000000  0.20000000  0.80000000
  0.00000000  0.20000000  0.90000000
  0.00000000  0.30000000  0.00000000
  0.00000000  0.30000000  0.10000000
  0.00000000  0.30000000  0.20000000
  0.00000000  0.30000000  0.30000000
  0.00000000  0.30000000  0.40000000
  0.00000000  0.30000000  0.50000000
  0.00000000  0.30000000  0.60000000
  0.00000000  0.30000000  0.70000000
  0.00000000  0.30000000  0.80000000
  0.00000000  0.30000000  0.90000000
  0.00000000  0.40000000  0.00000000
  0.00000000  0.40000000  0.10000000
  0.00000000  0.40000000  0.20000000
  0.00000000  0.40000000  0.30000000
  0.00000000  0.40000000  0.40000000
  0.00000000  0.40000000  0.50000000
  0.00000000  0.40000000  0.60000000
  0.00000000  0.40000000  0.70000000
  0.00000000  0.40000000  0.80000000
  0.00000000  0.40000000  0.90000000
  0.00000000  0.50000000  0.00000000
  0.00000000  0.50000000  0.10000000
  0.00000000  0.50000000  0.20000000
  0.00000000  0.50000000  0.30000000
  0.00000000  0.50000000  0.40000000
  0.00000000  0.50000000  0.50000000
  0.00000000  0.50000000  0.60000000
  0.00000000  0.50000000  0.70000000
  0.00000000  0.50000000  0.80000000
  0.00000000  0.50000000  0.90000000
  0.00000000  0.60000000  0.00000000
  0.00000000  0.60000000  0.10000000
  0.00000000  0.60000000  0.20000000
  0.00000000  0.60000000  0.30000000
  0.00000000  0.60000000  0.40000000
  0.00000000  0.60000000  0.50000000
  0.00000000  0.60000000  0.60000000
  0.00000000  0.60000000  0.70000000
  0.00000000  0.60000000  0.80000000
  0.00000000  0.60000000  0.90000000
  0.00000000  0.70000000  0.00000000
  0.00000000  0.70000000  0.10000000
  0.00000000  0.70000000  0.20000000
  0.00000000  0.70000000  0.30000000
  0.00000000  0.70000000  0.40000000
  0.00000000  0.70000000  0.50000000
  0.00000000  0.70000000  0.60000000
  0.00000000  0.70000000  0.70000000
  0.00000000  0.70000000  0.80000000
  0.00000000  0.70000000  0.90000000
  0.00000000  0.80000000  0.00000000
  0.00000000  0.80000000  0.10000000
  0.00000000  0.80000000  0.20000000
  0.00000000  0.80000000  0.30000000
  0.00000000  0.80000000  0.40000000
  0.00000000  0.80000000  0.50000000
  0.00000000  0.80000000  0.60000000
  0.00000000  0.80000000  0.70000000
  0.00000000  0.80000000  0.80000000
  0.00000000  0.80000000  0.90000000
  0.00000000  0.90000000  0.00000000
  0.00000000  0.90000000  0.10000000
  0.00000000  0.90000000  0.20000000
  0.00000000  0.90000000  0.30000000
  0.00000000  0.90000000  0.40000000
  0.00000000  0.90000000  0.50000000
  0.00000000  0.90000000  0.60000000
  0.00000000  0.90000000  0.70000000
  0.00000000  0.90000000  0.80000000
  0.00000000  0.90000000  0.90000000
  0.10000000  0.00000000  0.00000000
  0.10000000  0.00000000  0.10000000
  0.10000000  0.00000000  0.20000000
  0.10000000  0.00000000  0.30000000
  0.10000000  0.00000000  0.40000000
  0.10000000  0.00000000  0.50000000
  0.10000000  0.00000000  0.60000000
  0.10000000  0.00000000  0.70000000
  0.10000000  0.00000000  0.80000000
  0.10000000  0.00000000  0.90000000
  0.10000000  0.10000000  0.00000000
  0.10000000  0.10000000  0.10000000
  0.10000000  0.10000000  0.20000000
  0.10000000  0.10000000  0.30000000
  0.10000000  0.10000000  0.40000000
  0.10000000  0.10000000  0.50000000
  0.10000000  0.10000000  0.60000000
  0.10000000  0.10000000  0.70000000
  0.10000000  0.10000000  0.80000000
  0.10000000  0.10000000  0.90000000
  0.10000000  0.20000000  0.00000000
  0.10000000  0.20000000  0.10000000
  0.10000000  0.20000000  0.20000000
  0.10000000  0.20000000  0.30000000
  0.10000000  0.20000000  0.40000000
  0.10000000  0.20000000  0.50000000
  0.10000000  0.20000000  0.60000000
  0.10000000  0.20000000  0.70000000
  0.10000000  0.20000000  0.80000000
  0.10000000  0.20000000  0.90000000
  0.10000000  0.30000000  0.00000000
  0.10000000  0.30000000  0.10000000
  0.10000000  0.30000000  0.20000000
  0.10000000  0.30000000  0.30000000
  0.10000000  0.30000000  0.40000000
  0.10000000  0.30000000  0.50000000
  0.10000000  0.30000000  0.60000000
  0.10000000  0.30000000  0.70000000
  0.10000000  0.30000000  0.80000000
  0.10000000  0.30000000  0.90000000
  0.10000000  0.40000000  0.00000000
  0.10000000  0.40000000  0.10000000
  0.10000000  0.40000000  0.20000000
  0.10000000  0.40000000  0.30000000
  0.10000000  0.40000000  0.40000000
  0.10000000  0.40000000  0.50000000
  0.10000000  0.40000000  0.60000000
  0.10000000  0.40000000  0.70000000
  0.10000000  0.40000000  0.80000000
  0.10000000  0.40000000  0.90000000
  0.10000000  0.50000000  0.00000000
  0.10000000  0.50000000  0.10000000
  0.10000000  0.50000000  0.20000000
  0.10000000  0.50000000  0.30000000
  0.10000000  0.50000000  0.40000000
  0.10000000  0.50000000  0.50000000
  0.10000000  0.50000000  0.60000000
  0.10000000  0.50000000  0.70000000
  0.10000000  0.50000000  0.80000000
  0.10000000  0.50000000  0.90000000
  0.10000000  0.60000000  0.00000000
  0.10000000  0.60000000  0.10000000
  0.10000000  0.60000000  0.20000000
  0.10000000  0.60000000  0.30000000
  0.10000000  0.60000000  0.40000000
  0.10000000  0.60000000  0.50000000
  0.10000000  0.60000000  0.60000000
  0.10000000  0.60000000  0.70000000
  0.10000000  0.60000000  0.80000000
  0.10000000  0.60000000  0.90000000
  0.10000000  0.70000000  0.00000000
  0.10000000  0.70000000  0.10000000
  0.10000000  0.70000000  0.20000000
  0.10000000  0.70000000  0.30000000
  0.10000000  0.70000000  0.40000000
  0.10000000  0.70000000  0.50000000
  0.10000000  0.70000000  0.60000000
  0.10000000  0.70000000  0.70000000
  0.10000000  0.70000000  0.80000000
  0.10000000  0.70000000  0.90000000
  0.10000000  0.80000000  0.00000000
  0.10000000  0.80000000  0.10000000
  0.10000000  0.80000000  0.20000000
  0.10000000  0.80000000  0.30000000
  0.10000000  0.80000000  0.40000000
  0.10000000  0.80000000  0.50000000
  0.10000000  0.80000000  0.60000000
  0.10000000  0.80000000  0.70000000
  0.10000000  0.80000000  0.80000000
  0.10000000  0.80000000  0.90000000
  0.10000000  0.90000000  0.00000000
  0.10000000  0.90000000  0.10000000
  0.10000000  0.90000000  0.20000000
  0.10000000  0.90000000  0.30000000
  0.10000000  0.90000000  0.40000000
  0.10000000  0.90000000  0.50000000
  0.10000000  0.90000000  0.60000000
  0.10000000  0.90000000  0.70000000
  0.10000000  0.90000000  0.80000000
  0.10000000  0.90000000  0.90000000
  0.20000000  0.00000000  0.00000000
  0.20000000  0.00000000  0.10000000
  0.20000000  0.00000000  0.20000000
  0.20000000  0.00000000  0.30000000
  0.20000000  0.00000000  0.40000000
  0.20000000  0.00000000  0.50000000
  0.20000000  0.00000000  0.60000000
  0.20000000  0.00000000  0.70000000
  0.20000000  0.00000000  0.80000000
  0.20000000  0.00000000  0.90000000
  0.20000000  0.10000000  0.00000000
  0.20000000  0.10000000  0.10000000
  0.20000000  0.10000000  0.20000000
  0.20000000  0.10000000  0.30000000
  0.20000000  0.10000000  0.40000000
  0.20000000  0.10000000  0.50000000
  0.20000000  0.10000000  0.60000000
  0.20000000  0.10000000  0.70000000
  0.20000000  0.10000000  0.80000000
  0.20000000  0.10000000  0.90000000
  0.20000000  0.20000000  0.00000000
  0.20000000  0.20000000  0.10000000
  0.20000000  0.20000000  0.20000000
  0.20000000  0.20000000  0.30000000
  0.20000000  0.20000000  0.40000000
  0.20000000  0.20000000  0.50000000
  0.20000000  0.20000000  0.60000000
  0.20000000  0.20000000  0.70000000
  0.20000000  0.20000000  0.80000000
  0.20000000  0.20000000  0.90000000
  0.20000000  0.30000000  0.00000000
  0.20000000  0.30000000  0.10000000
  0.20000000  0.30000000  0.20000000
  0.20000000  0.30000000  0.30000000
  0.20000000  0.30000000  0.40000000
  0.20000000  0.30000000  0.50000000
  0.20000000  0.30000000  0.60000000
  0.20000000  0.30000000  0.70000000
  0.20000000  0.30000000  0.80000000
  0.20000000  0.30000000  0.90000000
  0.20000000  0.40000000  0.00000000
  0.20000000  0.40000000  0.10000000
  0.20000000  0.40000000  0.20000000
  0.20000000  0.40000000  0.30000000
  0.20000000  0.40000000  0.40000000
  0.20000000  0.40000000  0.50000000
  0.20000000  0.40000000  0.60000000
  0.20000000  0.40000000  0.70000000
  0.20000000  0.40000000  0.80000000
  0.20000000  0.40000000  0.90000000
  0.20000000  0.50000000  0.00000000
  0.20000000  0.50000000  0.10000000
  0.20000000  0.50000000  0.20000000
  0.20000000  0.50000000  0.30000000
  0.20000000  0.50000000  0.40000000
  0.20000000  0.50000000  0.50000000
  0.20000000  0.50000000  0.60000000
  0.20000000  0.50000000  0.70000000
  0.20000000  0.50000000  0.80000000
  0.20000000  0.50000000  0.90000000
  0.20000000  0.60000000  0.00000000
  0.20000000  0.60000000  0.10000000
  0.20000000  0.60000000  0.20000000
  0.20000000  0.60000000  0.30000000
  0.20000000  0.60000000  0.40000000
  0.20000000  0.60000000  0.50000000
  0.20000000  0.60000000  0.60000000
  0.20000000  0.60000000  0.70000000
  0.20000000  0.60000000  0.80000000
  0.20000000  0.60000000  0.90000000
  0.20000000  0.70000000  0.00000000
  0.20000000  0.70000000  0.10000000
  0.20000000  0.70000000  0.20000000
  0.20000000  0.70000000  0.30000000
  0.20000000  0.70000000  0.40000000
  0.20000000  0.70000000  0.50000000
  0.20000000  0.70000000  0.60000000
  0.20000000  0.70000000  0.70000000
  0.20000000  0.70000000  0.80000000
  0.20000000  0.70000000  0.90000000
  0.20000000  0.80000000  0.00000000
  0.20000000  0.80000000  0.10000000
  0.20000000  0.80000000  0.20000000
  0.20000000  0.80000000  0.30000000
  0.20000000  0.80000000  0.40000000
  0.20000000  0.80000000  0.50000000
  0.20000000  0.80000000  0.60000000
  0.20000000  0.80000000  0.70000000
  0.20000000  0.80000000  0.80000000
  0.20000000  0.80000000  0.90000000
  0.20000000  0.90000000  0.00000000
  0.20000000  0.90000000  0.10000000
  0.20000000  0.90000000  0.20000000
  0.20000000  0.90000000  0.30000000
  0.20000000  0.90000000  0.40000000
  0.20000000  0.90000000  0.50000000
  0.20000000  0.90000000  0.60000000
  0.20000000  0.90000000  0.70000000
  0.20000000  0.90000000  0.80000000
  0.20000000  0.90000000  0.90000000
  0.30000000  0.00000000  0.00000000
  0.30000000  0.00000000  0.10000000
  0.30000000  0.00000000  0.20000000
  0.30000000  0.00000000  0.30000000
  0.30000000  0.00000000  0.40000000
  0.30000000  0.00000000  0.50000000
  0.30000000  0.00000000  0.60000000
  0.30000000  0.00000000  0.70000000
  0.30000000  0.00000000  0.80000000
  0.30000000  0.00000000  0.90000000
  0.30000000  0.10000000  0.00000000
  0.30000000  0.10000000  0.10000000
  0.30000000  0.10000000  0.20000000
  0.30000000  0.10000000  0.30000000
  0.30000000  0.10000000  0.40000000
  0.30000000  0.10000000  0.50000000
  0.30000000  0.10000000  0.60000000
  0.30000000  0.10000000  0.70000000
  0.30000000  0.10000000  0.80000000
  0.30000000  0.10000000  0.90000000
  0.30000000  0.20000000  0.00000000
  0.30000000  0.20000000  0.10000000
  0.30000000  0.20000000  0.20000000
  0.30000000  0.20000000  0.30000000
  0.30000000  0.20000000  0.40000000
  0.30000000  0.20000000  0.50000000
  0.30000000  0.20000000  0.60000000
  0.30000000  0.20000000  0.70000000
  0.30000000  0.20000000  0.80000000
  0.30000000  0.20000000  0.90000000
  0.30000000  0.30000000  0.00000000
  0.30000000  0.30000000  0.10000000
  0.30000000  0.30000000  0.20000000
  0.30000000  0.30000000  0.30000000
  0.30000000  0.30000000  0.40000000
  0.30000000  0.30000000  0.50000000
  0.30000000  0.30000000  0.60000000
  0.30000000  0.30000000  0.70000000
  0.30000000  0.30000000  0.80000000
  0.30000000  0.30000000  0.90000000
  0.30000000  0.40000000  0.00000000
  0.30000000  0.40000000  0.10000000
  0.30000000  0.40000000  0.20000000
  0.30000000  0.40000000  0.30000000
  0.30000000  0.40000000  0.40000000
  0.30000000  0.40000000  0.50000000
  0.30000000  0.40000000  0.60000000
  0.30000000  0.40000000  0.70000000
  0.30000000  0.40000000  0.80000000
  0.30000000  0.40000000  0.90000000
  0.30000000  0.50000000  0.00000000
  0.30000000  0.50000000  0.10000000
  0.30000000  0.50000000  0.20000000
  0.30000000  0.50000000  0.30000000
  0.30000000  0.50000000  0.40000000
  0.30000000  0.50000000  0.50000000
  0.30000000  0.50000000  0.60000000
  0.30000000  0.50000000  0.70000000
  0.30000000  0.50000000  0.80000000
  0.30000000  0.50000000  0.90000000
  0.30000000  0.60000000  0.00000000
  0.30000000  0.60000000  0.10000000
  0.30000000  0.60000000  0.20000000
  0.30000000  0.60000000  0.30000000
  0.30000000  0.60000000  0.40000000
  0.30000000  0.60000000  0.50000000
  0.30000000  0.60000000  0.60000000
  0.30000000  0.60000000  0.70000000
  0.30000000  0.60000000  0.80000000
  0.30000000  0.60000000  0.90000000
  0.30000000  0.70000000  0.00000000
  0.30000000  0.70000000  0.10000000
  0.30000000  0.70000000  0.20000000
  0.30000000  0.70000000  0.30000000
  0.30000000  0.70000000  0.40000000
  0.30000000  0.70000000  0.50000000
  0.30000000  0.70000000  0.60000000
  0.30000000  0.70000000  0.70000000
  0.30000000  0.70000000  0.80000000
  0.30000000  0.70000000  0.90000000
  0.30000000  0.80000000  0.00000000
  0.30000000  0.80000000  0.10000000
  0.30000000  0.80000000  0.20000000
  0.30000000  0.80000000  0.30000000
  0.30000000  0.80000000  0.40000000
  0.30000000  0.80000000  0.50000000
  0.30000000  0.80000000  0.60000000
  0.30000000  0.80000000  0.70000000
  0.30000000  0.80000000  0.80000000
  0.30000000  0.80000000  0.90000000
  0.30000000  0.90000000  0.00000000
  0.30000000  0.90000000  0.10000000
  0.30000000  0.90000000  0.20000000
  0.30000000  0.90000000  0.30000000
  0.30000000  0.90000000  0.40000000
  0.30000000  0.90000000  0.50000000
  0.30000000  0.90000000  0.60000000
  0.30000000  0.90000000  0.70000000
  0.30000000  0.90000000  0.80000000
  0.30000000  0.90000000  0.90000000
  0.40000000  0.00000000  0.00000000
  0.40000000  0.00000000  0.10000000
  0.40000000  0.00000000  0.20000000
  0.40000000  0.00000000  0.30000000
  0.40000000  0.00000000  0.40000000
  0.40000000  0.00000000  0.50000000
  0.40000000  0.00000000  0.60000000
  0.40000000  0.00000000  0.70000000
  0.40000000  0.00000000  0.80000000
  0.40000000  0.00000000  0.90000000
  0.40000000  0.10000000  0.00000000
  0.40000000  0.10000000  0.10000000
  0.40000000  0.10000000  0.20000000
  0.40000000  0.10000000  0.30000000
  0.40000000  0.10000000  0.40000000
  0.40000000  0.10000000  0.50000000
  0.40000000  0.10000000  0.60000000
  0.40000000  0.10000000  0.70000000
  0.40000000  0.10000000  0.80000000
  0.40000000  0.10000000  0.90000000
  0.40000000  0.20000000  0.00000000
  0.40000000  0.20000000  0.10000000
  0.40000000  0.20000000  0.20000000
  0.40000000  0.20000000  0.30000000
  0.40000000  0.20000000  0.40000000
  0.40000000  0.20000000  0.50000000
  0.40000000  0.20000000  0.60000000
  0.40000000  0.20000000  0.70000000
  0.40000000  0.20000000  0.80000000
  0.40000000  0.20000000  0.90000000
  0.40000000  0.30000000  0.00000000
  0.40000000  0.30000000  0.10000000
  0.40000000  0.30000000  0.20000000
  0.40000000  0.30000000  0.30000000
  0.40000000  0.30000000  0.40000000
  0.40000000  0.30000000  0.50000000
  0.40000000  0.30000000  0.60000000
  0.40000000  0.30000000  0.70000000
  0.40000000  0.30000000  0.80000000
  0.40000000  0.30000000  0.90000000
  0.40000000  0.40000000  0.00000000
  0.40000000  0.40000000  0.10000000
  0.40000000  0.40000000  0.20000000
  0.40000000  0.40000000  0.30000000
  0.40000000  0.40000000  0.40000000
  0.40000000  0.40000000  0.50000000
  0.40000000  0.40000000  0.60000000
  0.40000000  0.40000000  0.70000000
  0.40000000  0.40000000  0.80000000
  0.40000000  0.40000000  0.90000000
  0.40000000  0.50000000  0.00000000
  0.40000000  0.50000000  0.10000000
  0.40000000  0.50000000  0.20000000
  0.40000000  0.50000000  0.30000000
  0.40000000  0.50000000  0.40000000
  0.40000000  0.50000000  0.50000000
  0.40000000  0.50000000  0.60000000
  0.40000000  0.50000000  0.70000000
  0.40000000  0.50000000  0.80000000
  0.40000000  0.50000000  0.90000000
  0.40000000  0.60000000  0.00000000
  0.40000000  0.60000000  0.10000000
  0.40000000  0.60000000  0.20000000
  0.40000000  0.60000000  0.30000000
  0.40000000  0.60000000  0.40000000
  0.40000000  0.60000000  0.50000000
  0.40000000  0.60000000  0.60000000
  0.40000000  0.60000000  0.70000000
  0.40000000  0.60000000  0.80000000
  0.40000000  0.60000000  0.90000000
  0.40000000  0.70000000  0.00000000
  0.40000000  0.70000000  0.10000000
  0.40000000  0.70000000  0.20000000
  0.40000000  0.70000000  0.30000000
  0.40000000  0.70000000  0.40000000
  0.40000000  0.70000000  0.50000000
  0.40000000  0.70000000  0.60000000
  0.40000000  0.70000000  0.70000000
  0.40000000  0.70000000  0.80000000
  0.40000000  0.70000000  0.90000000
  0.40000000  0.80000000  0.00000000
  0.40000000  0.80000000  0.10000000
  0.40000000  0.80000000  0.20000000
  0.40000000  0.80000000  0.30000000
  0.40000000  0.80000000  0.40000000
  0.40000000  0.80000000  0.50000000
  0.40000000  0.80000000  0.60000000
  0.40000000  0.80000000  0.70000000
  0.40000000  0.80000000  0.80000000
  0.40000000  0.80000000  0.90000000
  0.40000000  0.90000000  0.00000000
  0.40000000  0.90000000  0.10000000
  0.40000000  0.90000000  0.20000000
  0.40000000  0.90000000  0.30000000
  0.40000000  0.90000000  0.40000000
  0.40000000  0.90000000  0.50000000
  0.40000000  0.90000000  0.60000000
  0.40000000  0.90000000  0.70000000
  0.40000000  0.90000000  0.80000000
  0.40000000  0.90000000  0.90000000
  0.50000000  0.00000000  0.00000000
  0.50000000  0.00000000  0.10000000
  0.50000000  0.00000000  0.20000000
  0.50000000  0.00000000  0.30000000
  0.50000000  0.00000000  0.40000000
  0.50000000  0.00000000  0.50000000
  0.50000000  0.00000000  0.60000000
  0.50000000  0.00000000  0.70000000
  0.50000000  0.00000000  0.80000000
  0.50000000  0.00000000  0.90000000
  0.50000000  0.10000000  0.00000000
  0.50000000  0.10000000  0.10000000
  0.50000000  0.10000000  0.20000000
  0.50000000  0.10000000  0.30000000
  0.50000000  0.10000000  0.40000000
  0.50000000  0.10000000  0.50000000
  0.50000000  0.10000000  0.60000000
  0.50000000  0.10000000  0.70000000
  0.50000000  0.10000000  0.80000000
  0.50000000  0.10000000  0.90000000
  0.50000000  0.20000000  0.00000000
  0.50000000  0.20000000  0.10000000
  0.50000000  0.20000000  0.20000000
  0.50000000  0.20000000  0.30000000
  0.50000000  0.20000000  0.40000000
  0.50000000  0.20000000  0.50000000
  0.50000000  0.20000000  0.60000000
  0.50000000  0.20000000  0.70000000
  0.50000000  0.20000000  0.80000000
  0.50000000  0.20000000  0.90000000
  0.50000000  0.30000000  0.00000000
  0.50000000  0.30000000  0.10000000
  0.50000000  0.30000000  0.20000000
  0.50000000  0.30000000  0.30000000
  0.50000000  0.30000000  0.40000000
  0.50000000  0.30000000  0.50000000
  0.50000000  0.30000000  0.60000000
  0.50000000  0.30000000  0.70000000
  0.50000000  0.30000000  0.80000000
  0.50000000  0.30000000  0.90000000
  0.50000000  0.40000000  0.00000000
  0.50000000  0.40000000  0.10000000
  0.50000000  0.40000000  0.20000000
  0.50000000  0.40000000  0.30000000
  0.50000000  0.40000000  0.40000000
  0.50000000  0.40000000  0.50000000
  0.50000000  0.40000000  0.60000000
  0.50000000  0.40000000  0.70000000
  0.50000000  0.40000000  0.80000000
  0.50000000  0.40000000  0.90000000
  0.50000000  0.50000000  0.00000000
  0.50000000  0.50000000  0.10000000
  0.50000000  0.50000000  0.20000000
  0.50000000  0.50000000  0.30000000
  0.50000000  0.50000000  0.40000000
  0.50000000  0.50000000  0.50000000
  0.50000000  0.50000000  0.60000000
  0.50000000  0.50000000  0.70000000
  0.50000000  0.50000000  0.80000000
  0.50000000  0.50000000  0.90000000
  0.50000000  0.60000000  0.00000000
  0.50000000  0.60000000  0.10000000
  0.50000000  0.60000000  0.20000000
  0.50000000  0.60000000  0.30000000
  0.50000000  0.60000000  0.40000000
  0.50000000  0.60000000  0.50000000
  0.50000000  0.60000000  0.60000000
  0.50000000  0.60000000  0.70000000
  0.50000000  0.60000000  0.80000000
  0.50000000  0.60000000  0.90000000
  0.50000000  0.70000000  0.00000000
  0.50000000  0.70000000  0.10000000
  0.50000000  0.70000000  0.20000000
  0.50000000  0.70000000  0.30000000
  0.50000000  0.70000000  0.40000000
  0.50000000  0.70000000  0.50000000
  0.50000000  0.70000000  0.60000000
  0.50000000  0.70000000  0.70000000
  0.50000000  0.70000000  0.80000000
  0.50000000  0.70000000  0.90000000
  0.50000000  0.80000000  0.00000000
  0.50000000  0.80000000  0.10000000
  0.50000000  0.80000000  0.20000000
  0.50000000  0.80000000  0.30000000
  0.50000000  0.80000000  0.40000000
  0.50000000  0.80000000  0.50000000
  0.50000000  0.80000000  0.60000000
  0.50000000  0.80000000  0.70000000
  0.50000000  0.80000000  0.80000000
  0.50000000  0.80000000  0.90000000
  0.50000000  0.90000000  0.00000000
  0.50000000  0.90000000  0.10000000
  0.50000000  0.90000000  0.20000000
  0.50000000  0.90000000  0.30000000
  0.50000000  0.90000000  0.40000000
  0.50000000  0.90000000  0.50000000
  0.50000000  0.90000000  0.60000000
  0.50000000  0.90000000  0.70000000
  0.50000000  0.90000000  0.80000000
  0.50000000  0.90000000  0.90000000
  0.60000000  0.00000000  0.00000000
  0.60000000  0.00000000  0.10000000
  0.60000000  0.00000000  0.20000000
  0.60000000  0.00000000  0.30000000
  0.60000000  0.00000000  0.40000000
  0.60000000  0.00000000  0.50000000
  0.60000000  0.00000000  0.60000000
  0.60000000  0.00000000  0.70000000
  0.60000000  0.00000000  0.80000000
  0.60000000  0.00000000  0.90000000
  0.60000000  0.10000000  0.00000000
  0.60000000  0.10000000  0.10000000
  0.60000000  0.10000000  0.20000000
  0.60000000  0.10000000  0.30000000
  0.60000000  0.10000000  0.40000000
  0.60000000  0.10000000  0.50000000
  0.60000000  0.10000000  0.60000000
  0.60000000  0.10000000  0.70000000
  0.60000000  0.10000000  0.80000000
  0.60000000  0.10000000  0.90000000
  0.60000000  0.20000000  0.00000000
  0.60000000  0.20000000  0.10000000
  0.60000000  0.20000000  0.20000000
  0.60000000  0.20000000  0.30000000
  0.60000000  0.20000000  0.40000000
  0.60000000  0.20000000  0.50000000
  0.60000000  0.20000000  0.60000000
  0.60000000  0.20000000  0.70000000
  0.60000000  0.20000000  0.80000000
  0.60000000  0.20000000  0.90000000
  0.60000000  0.30000000  0.00000000
  0.60000000  0.30000000  0.10000000
  0.60000000  0.30000000  0.20000000
  0.60000000  0.30000000  0.30000000
  0.60000000  0.30000000  0.40000000
  0.60000000  0.30000000  0.50000000
  0.60000000  0.30000000  0.60000000
  0.60000000  0.30000000  0.70000000
  0.60000000  0.30000000  0.80000000
  0.60000000  0.30000000  0.90000000
  0.60000000  0.40000000  0.00000000
  0.60000000  0.40000000  0.10000000
  0.60000000  0.40000000  0.20000000
  0.60000000  0.40000000  0.30000000
  0.60000000  0.40000000  0.40000000
  0.60000000  0.40000000  0.50000000
  0.60000000  0.40000000  0.60000000
  0.60000000  0.40000000  0.70000000
  0.60000000  0.40000000  0.80000000
  0.60000000  0.40000000  0.90000000
  0.60000000  0.50000000  0.00000000
  0.60000000  0.50000000  0.10000000
  0.60000000  0.50000000  0.20000000
  0.60000000  0.50000000  0.30000000
  0.60000000  0.50000000  0.40000000
  0.60000000  0.50000000  0.50000000
  0.60000000  0.50000000  0.60000000
  0.60000000  0.50000000  0.70000000
  0.60000000  0.50000000  0.80000000
  0.60000000  0.50000000  0.90000000
  0.60000000  0.60000000  0.00000000
  0.60000000  0.60000000  0.10000000
  0.60000000  0.60000000  0.20000000
  0.60000000  0.60000000  0.30000000
  0.60000000  0.60000000  0.40000000
  0.60000000  0.60000000  0.50000000
  0.60000000  0.60000000  0.60000000
  0.60000000  0.60000000  0.70000000
  0.60000000  0.60000000  0.80000000
  0.60000000  0.60000000  0.90000000
  0.60000000  0.70000000  0.00000000
  0.60000000  0.70000000  0.10000000
  0.60000000  0.70000000  0.20000000
  0.60000000  0.70000000  0.30000000
  0.60000000  0.70000000  0.40000000
  0.60000000  0.70000000  0.50000000
  0.60000000  0.70000000  0.60000000
  0.60000000  0.70000000  0.70000000
  0.60000000  0.70000000  0.80000000
  0.60000000  0.70000000  0.90000000
  0.60000000  0.80000000  0.00000000
  0.60000000  0.80000000  0.10000000
  0.60000000  0.80000000  0.20000000
  0.60000000  0.80000000  0.30000000
  0.60000000  0.80000000  0.40000000
  0.60000000  0.80000000  0.50000000
  0.60000000  0.80000000  0.60000000
  0.60000000  0.80000000  0.70000000
  0.60000000  0.80000000  0.80000000
  0.60000000  0.80000000  0.90000000
  0.60000000  0.90000000  0.00000000
  0.60000000  0.90000000  0.10000000
  0.60000000  0.90000000  0.20000000
  0.60000000  0.90000000  0.30000000
  0.60000000  0.90000000  0.40000000
  0.60000000  0.90000000  0.50000000
  0.60000000  0.90000000  0.60000000
  0.60000000  0.90000000  0.70000000
  0.60000000  0.90000000  0.80000000
  0.60000000  0.90000000  0.90000000
  0.70000000  0.00000000  0.00000000
  0.70000000  0.00000000  0.10000000
  0.70000000  0.00000000  0.20000000
  0.70000000  0.00000000  0.30000000
  0.70000000  0.00000000  0.40000000
  0.70000000  0.00000000  0.50000000
  0.70000000  0.00000000  0.60000000
  0.70000000  0.00000000  0.70000000
  0.70000000  0.00000000  0.80000000
  0.70000000  0.00000000  0.90000000
  0.70000000  0.10000000  0.00000000
  0.70000000  0.10000000  0.10000000
  0.70000000  0.10000000  0.20000000
  0.70000000  0.10000000  0.30000000
  0.70000000  0.10000000  0.40000000
  0.70000000  0.10000000  0.50000000
  0.70000000  0.10000000  0.60000000
  0.70000000  0.10000000  0.70000000
  0.70000000  0.10000000  0.80000000
  0.70000000  0.10000000  0.90000000
  0.70000000  0.20000000  0.00000000
  0.70000000  0.20000000  0.10000000
  0.70000000  0.20000000  0.20000000
  0.70000000  0.20000000  0.30000000
  0.70000000  0.20000000  0.40000000
  0.70000000  0.20000000  0.50000000
  0.70000000  0.20000000  0.60000000
  0.70000000  0.20000000  0.70000000
  0.70000000  0.20000000  0.80000000
  0.70000000  0.20000000  0.90000000
  0.70000000  0.30000000  0.00000000
  0.70000000  0.30000000  0.10000000
  0.70000000  0.30000000  0.20000000
  0.70000000  0.30000000  0.30000000
  0.70000000  0.30000000  0.40000000
  0.70000000  0.30000000  0.50000000
  0.70000000  0.30000000  0.60000000
  0.70000000  0.30000000  0.70000000
  0.70000000  0.30000000  0.80000000
  0.70000000  0.30000000  0.90000000
  0.70000000  0.40000000  0.00000000
  0.70000000  0.40000000  0.10000000
  0.70000000  0.40000000  0.20000000
  0.70000000  0.40000000  0.30000000
  0.70000000  0.40000000  0.40000000
  0.70000000  0.40000000  0.50000000
  0.70000000  0.40000000  0.60000000
  0.70000000  0.40000000  0.70000000
  0.70000000  0.40000000  0.80000000
  0.70000000  0.40000000  0.90000000
  0.70000000  0.50000000  0.00000000
  0.70000000  0.50000000  0.10000000
  0.70000000  0.50000000  0.20000000
  0.70000000  0.50000000  0.30000000
  0.70000000  0.50000000  0.40000000
  0.70000000  0.50000000  0.50000000
  0.70000000  0.50000000  0.60000000
  0.70000000  0.50000000  0.70000000
  0.70000000  0.50000000  0.80000000
  0.70000000  0.50000000  0.90000000
  0.70000000  0.60000000  0.00000000
  0.70000000  0.60000000  0.10000000
  0.70000000  0.60000000  0.20000000
  0.70000000  0.60000000  0.30000000
  0.70000000  0.60000000  0.40000000
  0.70000000  0.60000000  0.50000000
  0.70000000  0.60000000  0.60000000
  0.70000000  0.60000000  0.70000000
  0.70000000  0.60000000  0.80000000
  0.70000000  0.60000000  0.90000000
  0.70000000  0.70000000  0.00000000
  0.70000000  0.70000000  0.10000000
  0.70000000  0.70000000  0.20000000
  0.70000000  0.70000000  0.30000000
  0.70000000  0.70000000  0.40000000
  0.70000000  0.70000000  0.50000000
  0.70000000  0.70000000  0.60000000
  0.70000000  0.70000000  0.70000000
  0.70000000  0.70000000  0.80000000