num_bands         =   32
num_wann          =   9

dis_win_min       =  -8.0d0
#dis_win_max       = 70.0d0
dis_froz_min      =  -8.0d0
dis_froz_max      =  20.0d0
dis_num_iter      =  2000

num_iter          = 2000
dis_mix_ratio = 1.0

#spinors = T
begin projections
Fe: sp3d2;dxy;dxz;dyz
end projections

#fermi_energy_min=12
#fermi_energy_max=13
#fermi_energy_step=0.01

mp_grid           = 16 16 16

#restart = plot
#bands_plot  = true
#bands_plot_format = gnuplot
#bands_num_points =100
#wannier_plot = true

begin kpoint_path
G 0.0000 0.0000 0.0000   H 0.500 -0.5000 -0.5000
H 0.500 -0.5000 -0.5000  P 0.7500 0.2500 -0.2500
P 0.7500 0.2500 -0.2500  N 0.5000 0.0000 -0.5000
N 0.5000 0.0000 -0.5000  G 0.0000 0.0000 0.000
G 0.0000 0.0000 0.000    H 0.5 0.5 0.5
H 0.5 0.5 0.5            N 0.5 0.0 0.0
N 0.5 0.0 0.0            G 0.0 0.0 0.0
G 0.0 0.0 0.0            P 0.75 0.25 -0.25
P 0.75 0.25 -0.25        N 0.5 0.0 0.0
end kpoint_path

#write_hr = true
#write_u_matrices = true
#spn_formatted = false

begin unit_cell_cart
bohr
 2.71175  2.71175 2.71175
-2.71175  2.71175 2.71175
-2.71175 -2.71175 2.71175
end unit_cell_cart

begin atoms_frac
Fe  0.000  0.000  0.000
end atoms_frac

begin kpoints
  0.00000000  0.00000000  0.00000000
  0.00000000  0.00000000  0.06250000
  0.00000000  0.00000000  0.12500000
  0.00000000  0.00000000  0.18750000
  0.00000000  0.00000000  0.25000000
  0.00000000  0.00000000  0.31250000
  0.00000000  0.00000000  0.37500000
  0.00000000  0.00000000  0.43750000
  0.00000000  0.00000000  0.50000000
  0.00000000  0.00000000  0.56250000
  0.00000000  0.00000000  0.62500000
  0.00000000  0.00000000  0.68750000
  0.00000000  0.00000000  0.75000000
  0.00000000  0.00000000  0.81250000
  0.00000000  0.00000000  0.87500000
  0.00000000  0.00000000  0.93750000
  0.00000000  0.06250000  0.00000000
  0.00000000  0.06250000  0.06250000
  0.00000000  0.06250000  0.12500000
  0.00000000  0.06250000  0.18750000
  0.00000000  0.06250000  0.25000000
  0.00000000  0.06250000  0.31250000
  0.00000000  0.06250000  0.37500000
  0.00000000  0.06250000  0.43750000
  0.00000000  0.06250000  0.50000000
  0.00000000  0.06250000  0.56250000
  0.00000000  0.06250000  0.62500000
  0.00000000  0.06250000  0.68750000
  0.00000000  0.06250000  0.75000000
  0.00000000  0.06250000  0.81250000
  0.00000000  0.06250000  0.87500000
  0.00000000  0.06250000  0.93750000
  0.00000000  0.12500000  0.00000000
  0.00000000  0.12500000  0.06250000
  0.00000000  0.12500000  0.12500000
  0.00000000  0.12500000  0.18750000
  0.00000000  0.12500000  0.25000000
  0.00000000  0.12500000  0.31250000
  0.00000000  0.12500000  0.37500000
  0.00000000  0.12500000  0.43750000
  0.00000000  0.12500000  0.50000000
  0.00000000  0.12500000  0.56250000
  0.00000000  0.12500000  0.62500000
  0.00000000  0.12500000  0.68750000
  0.00000000  0.12500000  0.75000000
  0.00000000  0.12500000  0.81250000
  0.00000000  0.12500000  0.87500000
  0.00000000  0.12500000  0.93750000
  0.00000000  0.18750000  0.00000000
  0.00000000  0.18750000  0.06250000
  0.00000000  0.18750000  0.12500000
  0.00000000  0.18750000  0.18750000
  0.00000000  0.18750000  0.25000000
  0.00000000  0.18750000  0.31250000
  0.00000000  0.18750000  0.37500000
  0.00000000  0.18750000  0.43750000
  0.00000000  0.18750000  0.50000000
  0.00000000  0.18750000  0.56250000
  0.00000000  0.18750000  0.62500000
  0.00000000  0.18750000  0.68750000
  0.00000000  0.18750000  0.75000000
  0.00000000  0.18750000  0.81250000
  0.00000000  0.18750000  0.87500000
  0.00000000  0.18750000  0.93750000
  0.00000000  0.25000000  0.00000000
  0.00000000  0.25000000  0.06250000
  0.00000000  0.25000000  0.12500000
  0.00000000  0.25000000  0.18750000
  0.00000000  0.25000000  0.25000000
  0.00000000  0.25000000  0.31250000
  0.00000000  0.25000000  0.37500000
  0.00000000  0.25000000  0.43750000
  0.00000000  0.25000000  0.50000000
  0.00000000  0.25000000  0.56250000
  0.00000000  0.25000000  0.62500000
  0.00000000  0.25000000  0.68750000
  0.00000000  0.25000000  0.75000000
  0.00000000  0.25000000  0.81250000
  0.00000000  0.25000000  0.87500000
  0.00000000  0.25000000  0.93750000
  0.00000000  0.31250000  0.00000000
  0.00000000  0.31250000  0.06250000
  0.00000000  0.31250000  0.12500000
  0.00000000  0.31250000  0.18750000
  0.00000000  0.31250000  0.25000000
  0.00000000  0.31250000  0.31250000
  0.00000000  0.31250000  0.37500000
  0.00000000  0.31250000  0.43750000
  0.00000000  0.31250000  0.50000000
  0.00000000  0.31250000  0.56250000
  0.00000000  0.31250000  0.62500000
  0.00000000  0.31250000  0.68750000
  0.00000000  0.31250000  0.75000000
  0.00000000  0.31250000  0.81250000
  0.00000000  0.31250000  0.87500000
  0.00000000  0.31250000  0.93750000
  0.00000000  0.37500000  0.00000000
  0.00000000  0.37500000  0.06250000
  0.00000000  0.37500000  0.12500000
  0.00000000  0.37500000  0.18750000
  0.00000000  0.37500000  0.25000000
  0.00000000  0.37500000  0.31250000
  0.00000000  0.37500000  0.37500000
  0.00000000  0.37500000  0.43750000
  0.00000000  0.37500000  0.50000000
  0.00000000  0.37500000  0.56250000
  0.00000000  0.37500000  0.62500000
  0.00000000  0.37500000  0.68750000
  0.00000000  0.37500000  0.75000000
  0.00000000  0.37500000  0.81250000
  0.00000000  0.37500000  0.87500000
  0.00000000  0.37500000  0.93750000
  0.00000000  0.43750000  0.00000000
  0.00000000  0.43750000  0.06250000
  0.00000000  0.43750000  0.12500000
  0.00000000  0.43750000  0.18750000
  0.00000000  0.43750000  0.25000000
  0.00000000  0.43750000  0.31250000
  0.00000000  0.43750000  0.37500000
  0.00000000  0.43750000  0.43750000
  0.00000000  0.43750000  0.50000000
  0.00000000  0.43750000  0.56250000
  0.00000000  0.43750000  0.62500000
  0.00000000  0.43750000  0.68750000
  0.00000000  0.43750000  0.75000000
  0.00000000  0.43750000  0.81250000
  0.00000000  0.43750000  0.87500000
  0.00000000  0.43750000  0.93750000
  0.00000000  0.50000000  0.00000000
  0.00000000  0.50000000  0.06250000
  0.00000000  0.50000000  0.12500000
  0.00000000  0.50000000  0.18750000
  0.00000000  0.50000000  0.25000000
  0.00000000  0.50000000  0.31250000
  0.00000000  0.50000000  0.37500000
  0.00000000  0.50000000  0.43750000
  0.00000000  0.50000000  0.50000000
  0.00000000  0.50000000  0.56250000
  0.00000000  0.50000000  0.62500000
  0.00000000  0.50000000  0.68750000
  0.00000000  0.50000000  0.75000000
  0.00000000  0.50000000  0.81250000
  0.00000000  0.50000000  0.87500000
  0.00000000  0.50000000  0.93750000
  0.00000000  0.56250000  0.00000000
  0.00000000  0.56250000  0.06250000
  0.00000000  0.56250000  0.12500000
  0.00000000  0.56250000  0.18750000
  0.00000000  0.56250000  0.25000000
  0.00000000  0.56250000  0.31250000
  0.00000000  0.56250000  0.37500000
  0.00000000  0.56250000  0.43750000
  0.00000000  0.56250000  0.50000000
  0.00000000  0.56250000  0.56250000
  0.00000000  0.56250000  0.62500000
  0.00000000  0.56250000  0.68750000
  0.00000000  0.56250000  0.75000000
  0.00000000  0.56250000  0.81250000
  0.00000000  0.56250000  0.87500000
  0.00000000  0.56250000  0.93750000
  0.00000000  0.62500000  0.00000000
  0.00000000  0.62500000  0.06250000
  0.00000000  0.62500000  0.12500000
  0.00000000  0.62500000  0.18750000
  0.00000000  0.62500000  0.25000000
  0.00000000  0.62500000  0.31250000
  0.00000000  0.62500000  0.37500000
  0.00000000  0.62500000  0.43750000
  0.00000000  0.62500000  0.50000000
  0.00000000  0.62500000  0.56250000
  0.00000000  0.62500000  0.62500000
  0.00000000  0.62500000  0.68750000
  0.00000000  0.62500000  0.75000000
  0.00000000  0.62500000  0.81250000
  0.00000000  0.62500000  0.87500000
  0.00000000  0.62500000  0.93750000
  0.00000000  0.68750000  0.00000000
  0.00000000  0.68750000  0.06250000
  0.00000000  0.68750000  0.12500000
  0.00000000  0.68750000  0.18750000
  0.00000000  0.68750000  0.25000000
  0.00000000  0.68750000  0.31250000
  0.00000000  0.68750000  0.37500000
  0.00000000  0.68750000  0.43750000
  0.00000000  0.68750000  0.50000000
  0.00000000  0.68750000  0.56250000
  0.00000000  0.68750000  0.62500000
  0.00000000  0.68750000  0.68750000
  0.00000000  0.68750000  0.75000000
  0.00000000  0.68750000  0.81250000
  0.00000000  0.68750000  0.87500000
  0.00000000  0.68750000  0.93750000
  0.00000000  0.75000000  0.00000000
  0.00000000  0.75000000  0.06250000
  0.00000000  0.75000000  0.12500000
  0.00000000  0.75000000  0.18750000
  0.00000000  0.75000000  0.25000000
  0.00000000  0.75000000  0.31250000
  0.00000000  0.75000000  0.37500000
  0.00000000  0.75000000  0.43750000
  0.00000000  0.75000000  0.50000000
  0.00000000  0.75000000  0.56250000
  0.00000000  0.75000000  0.62500000
  0.00000000  0.75000000  0.68750000
  0.00000000  0.75000000  0.75000000
  0.00000000  0.75000000  0.81250000
  0.00000000  0.75000000  0.87500000
  0.00000000  0.75000000  0.93750000
  0.00000000  0.81250000  0.00000000
  0.00000000  0.81250000  0.06250000
  0.00000000  0.81250000  0.12500000
  0.00000000  0.81250000  0.18750000
  0.00000000  0.81250000  0.25000000
  0.00000000  0.81250000  0.31250000
  0.00000000  0.81250000  0.37500000
  0.00000000  0.81250000  0.43750000
  0.00000000  0.81250000  0.50000000
  0.00000000  0.81250000  0.56250000
  0.00000000  0.81250000  0.62500000
  0.00000000  0.81250000  0.68750000
  0.00000000  0.81250000  0.75000000
  0.00000000  0.81250000  0.81250000
  0.00000000  0.81250000  0.87500000
  0.00000000  0.81250000  0.93750000
  0.00000000  0.87500000  0.00000000
  0.00000000  0.87500000  0.06250000
  0.00000000  0.87500000  0.12500000
  0.00000000  0.87500000  0.18750000
  0.00000000  0.87500000  0.25000000
  0.00000000  0.87500000  0.31250000
  0.00000000  0.87500000  0.37500000
  0.00000000  0.87500000  0.43750000
  0.00000000  0.87500000  0.50000000
  0.00000000  0.87500000  0.56250000
  0.00000000  0.87500000  0.62500000
  0.00000000  0.87500000  0.68750000
  0.00000000  0.87500000  0.75000000
  0.00000000  0.87500000  0.81250000
  0.00000000  0.87500000  0.87500000
  0.00000000  0.87500000  0.93750000
  0.00000000  0.93750000  0.00000000
  0.00000000  0.93750000  0.06250000
  0.00000000  0.93750000  0.12500000
  0.00000000  0.93750000  0.18750000
  0.00000000  0.93750000  0.25000000
  0.00000000  0.93750000  0.31250000
  0.00000000  0.93750000  0.37500000
  0.00000000  0.93750000  0.43750000
  0.00000000  0.93750000  0.50000000
  0.00000000  0.93750000  0.56250000
  0.00000000  0.93750000  0.62500000
  0.00000000  0.93750000  0.68750000
  0.00000000  0.93750000  0.75000000
  0.00000000  0.93750000  0.81250000
  0.00000000  0.93750000  0.87500000
  0.00000000  0.93750000  0.93750000
  0.06250000  0.00000000  0.00000000
  0.06250000  0.00000000  0.06250000
  0.06250000  0.00000000  0.12500000
  0.06250000  0.00000000  0.18750000
  0.06250000  0.00000000  0.25000000
  0.06250000  0.00000000  0.31250000
  0.06250000  0.00000000  0.37500000
  0.06250000  0.00000000  0.43750000
  0.06250000  0.00000000  0.50000000
  0.06250000  0.00000000  0.56250000
  0.06250000  0.00000000  0.62500000
  0.06250000  0.00000000  0.68750000
  0.06250000  0.00000000  0.75000000
  0.06250000  0.00000000  0.81250000
  0.06250000  0.00000000  0.87500000
  0.06250000  0.00000000  0.93750000
  0.06250000  0.06250000  0.00000000
  0.06250000  0.06250000  0.06250000
  0.06250000  0.06250000  0.12500000
  0.06250000  0.06250000  0.18750000
  0.06250000  0.06250000  0.25000000
  0.06250000  0.06250000  0.31250000
  0.06250000  0.06250000  0.37500000
  0.06250000  0.06250000  0.43750000
  0.06250000  0.06250000  0.50000000
  0.06250000  0.06250000  0.56250000
  0.06250000  0.06250000  0.62500000
  0.06250000  0.06250000  0.68750000
  0.06250000  0.06250000  0.75000000
  0.06250000  0.06250000  0.81250000
  0.06250000  0.06250000  0.87500000
  0.06250000  0.06250000  0.93750000
  0.06250000  0.12500000  0.00000000
  0.06250000  0.12500000  0.06250000
  0.06250000  0.12500000  0.12500000
  0.06250000  0.12500000  0.18750000
  0.06250000  0.12500000  0.25000000
  0.06250000  0.12500000  0.31250000
  0.06250000  0.12500000  0.37500000
  0.06250000  0.12500000  0.43750000
  0.06250000  0.12500000  0.50000000
  0.06250000  0.12500000  0.56250000
  0.06250000  0.12500000  0.62500000
  0.06250000  0.12500000  0.68750000
  0.06250000  0.12500000  0.75000000
  0.06250000  0.12500000  0.81250000
  0.06250000  0.12500000  0.87500000
  0.06250000  0.12500000  0.93750000
  0.06250000  0.18750000  0.00000000
  0.06250000  0.18750000  0.06250000
  0.06250000  0.18750000  0.12500000
  0.06250000  0.18750000  0.18750000
  0.06250000  0.18750000  0.25000000
  0.06250000  0.18750000  0.31250000
  0.06250000  0.18750000  0.37500000
  0.06250000  0.18750000  0.43750000
  0.06250000  0.18750000  0.50000000
  0.06250000  0.18750000  0.56250000
  0.06250000  0.18750000  0.62500000
  0.06250000  0.18750000  0.68750000
  0.06250000  0.18750000  0.75000000
  0.06250000  0.18750000  0.81250000
  0.06250000  0.18750000  0.87500000
  0.06250000  0.18750000  0.93750000
  0.06250000  0.25000000  0.00000000
  0.06250000  0.25000000  0.06250000
  0.06250000  0.25000000  0.12500000
  0.06250000  0.25000000  0.18750000
  0.06250000  0.25000000  0.25000000
  0.06250000  0.25000000  0.31250000
  0.06250000  0.25000000  0.37500000
  0.06250000  0.25000000  0.43750000
  0.06250000  0.25000000  0.50000000
  0.06250000  0.25000000  0.56250000
  0.06250000  0.25000000  0.62500000
  0.06250000  0.25000000  0.68750000
  0.06250000  0.25000000  0.75000000
  0.06250000  0.25000000  0.81250000
  0.06250000  0.25000000  0.87500000
  0.06250000  0.25000000  0.93750000
  0.06250000  0.31250000  0.00000000
  0.06250000  0.31250000  0.06250000
  0.06250000  0.31250000  0.12500000
  0.06250000  0.31250000  0.18750000
  0.06250000  0.31250000  0.25000000
  0.06250000  0.31250000  0.31250000
  0.06250000  0.31250000  0.37500000
  0.06250000  0.31250000  0.43750000
  0.06250000  0.31250000  0.50000000
  0.06250000  0.31250000  0.56250000
  0.06250000  0.31250000  0.62500000
  0.06250000  0.31250000  0.68750000
  0.06250000  0.31250000  0.75000000
  0.06250000  0.31250000  0.81250000
  0.06250000  0.31250000  0.87500000
  0.06250000  0.31250000  0.93750000
  0.06250000  0.37500000  0.00000000
  0.06250000  0.37500000  0.06250000
  0.06250000  0.37500000  0.12500000
  0.06250000  0.37500000  0.18750000
  0.06250000  0.37500000  0.25000000
  0.06250000  0.37500000  0.31250000
  0.06250000  0.37500000  0.37500000
  0.06250000  0.37500000  0.43750000
  0.06250000  0.37500000  0.50000000
  0.06250000  0.37500000  0.56250000
  0.06250000  0.37500000  0.62500000
  0.06250000  0.37500000  0.68750000
  0.06250000  0.37500000  0.75000000
  0.06250000  0.37500000  0.81250000
  0.06250000  0.37500000  0.87500000
  0.06250000  0.37500000  0.93750000
  0.06250000  0.43750000  0.00000000
  0.06250000  0.43750000  0.06250000
  0.06250000  0.43750000  0.12500000
  0.06250000  0.43750000  0.18750000
  0.06250000  0.43750000  0.25000000
  0.06250000  0.43750000  0.31250000
  0.06250000  0.43750000  0.37500000
  0.06250000  0.43750000  0.43750000
  0.06250000  0.43750000  0.50000000
  0.06250000  0.43750000  0.56250000
  0.06250000  0.43750000  0.62500000
  0.06250000  0.43750000  0.68750000
  0.06250000  0.43750000  0.75000000
  0.06250000  0.43750000  0.81250000
  0.06250000  0.43750000  0.87500000
  0.06250000  0.43750000  0.93750000
  0.06250000  0.50000000  0.00000000
  0.06250000  0.50000000  0.06250000
  0.06250000  0.50000000  0.12500000
  0.06250000  0.50000000  0.18750000
  0.06250000  0.50000000  0.25000000
  0.06250000  0.50000000  0.31250000
  0.06250000  0.50000000  0.37500000
  0.06250000  0.50000000  0.43750000
  0.06250000  0.50000000  0.50000000
  0.06250000  0.50000000  0.56250000
  0.06250000  0.50000000  0.62500000
  0.06250000  0.50000000  0.68750000
  0.06250000  0.50000000  0.75000000
  0.06250000  0.50000000  0.81250000
  0.06250000  0.50000000  0.87500000
  0.06250000  0.50000000  0.93750000
  0.06250000  0.56250000  0.00000000
  0.06250000  0.56250000  0.06250000
  0.06250000  0.56250000  0.12500000
  0.06250000  0.56250000  0.18750000
  0.06250000  0.56250000  0.25000000
  0.06250000  0.56250000  0.31250000
  0.06250000  0.56250000  0.37500000
  0.06250000  0.56250000  0.43750000
  0.06250000  0.56250000  0.50000000
  0.06250000  0.56250000  0.56250000
  0.06250000  0.56250000  0.62500000
  0.06250000  0.56250000  0.68750000
  0.06250000  0.56250000  0.75000000
  0.06250000  0.56250000  0.81250000
  0.06250000  0.56250000  0.87500000
  0.06250000  0.56250000  0.93750000
  0.06250000  0.62500000  0.00000000
  0.06250000  0.62500000  0.06250000
  0.06250000  0.62500000  0.12500000
  0.06250000  0.62500000  0.18750000
  0.06250000  0.62500000  0.25000000
  0.06250000  0.62500000  0.31250000
  0.06250000  0.62500000  0.37500000
  0.06250000  0.62500000  0.43750000
  0.06250000  0.62500000  0.50000000
  0.06250000  0.62500000  0.56250000
  0.06250000  0.62500000  0.62500000
  0.06250000  0.62500000  0.68750000
  0.06250000  0.62500000  0.75000000
  0.06250000  0.62500000  0.81250000
  0.06250000  0.62500000  0.87500000
  0.06250000  0.62500000  0.93750000
  0.06250000  0.68750000  0.00000000
  0.06250000  0.68750000  0.06250000
  0.06250000  0.68750000  0.12500000
  0.06250000  0.68750000  0.18750000
  0.06250000  0.68750000  0.25000000
  0.06250000  0.68750000  0.31250000
  0.06250000  0.68750000  0.37500000
  0.06250000  0.68750000  0.43750000
  0.06250000  0.68750000  0.50000000
  0.06250000  0.68750000  0.56250000
  0.06250000  0.68750000  0.62500000
  0.06250000  0.68750000  0.68750000
  0.06250000  0.68750000  0.75000000
  0.06250000  0.68750000  0.81250000
  0.06250000  0.68750000  0.87500000
  0.06250000  0.68750000  0.93750000
  0.06250000  0.75000000  0.00000000
  0.06250000  0.75000000  0.06250000
  0.06250000  0.75000000  0.12500000
  0.06250000  0.75000000  0.18750000
  0.06250000  0.75000000  0.25000000
  0.06250000  0.75000000  0.31250000
  0.06250000  0.75000000  0.37500000
  0.06250000  0.75000000  0.43750000
  0.06250000  0.75000000  0.50000000
  0.06250000  0.75000000  0.56250000
  0.06250000  0.75000000  0.62500000
  0.06250000  0.75000000  0.68750000
  0.06250000  0.75000000  0.75000000
  0.06250000  0.75000000  0.81250000
  0.06250000  0.75000000  0.87500000
  0.06250000  0.75000000  0.93750000
  0.06250000  0.81250000  0.00000000
  0.06250000  0.81250000  0.06250000
  0.06250000  0.81250000  0.12500000
  0.06250000  0.81250000  0.18750000
  0.06250000  0.81250000  0.25000000
  0.06250000  0.81250000  0.31250000
  0.06250000  0.81250000  0.37500000
  0.06250000  0.81250000  0.43750000
  0.06250000  0.81250000  0.50000000
  0.06250000  0.81250000  0.56250000
  0.06250000  0.81250000  0.62500000
  0.06250000  0.81250000  0.68750000
  0.06250000  0.81250000  0.75000000
  0.06250000  0.81250000  0.81250000
  0.06250000  0.81250000  0.87500000
  0.06250000  0.81250000  0.93750000
  0.06250000  0.87500000  0.00000000
  0.06250000  0.87500000  0.06250000
  0.06250000  0.87500000  0.12500000
  0.06250000  0.87500000  0.18750000
  0.06250000  0.87500000  0.25000000
  0.06250000  0.87500000  0.31250000
  0.06250000  0.87500000  0.37500000
  0.06250000  0.87500000  0.43750000
  0.06250000  0.87500000  0.50000000
  0.06250000  0.87500000  0.56250000
  0.06250000  0.87500000  0.62500000
  0.06250000  0.87500000  0.68750000
  0.06250000  0.87500000  0.75000000
  0.06250000  0.87500000  0.81250000
  0.06250000  0.87500000  0.87500000
  0.06250000  0.87500000  0.93750000
  0.06250000  0.93750000  0.00000000
  0.06250000  0.93750000  0.06250000
  0.06250000  0.93750000  0.12500000
  0.06250000  0.93750000  0.18750000
  0.06250000  0.93750000  0.25000000
  0.06250000  0.93750000  0.31250000
  0.06250000  0.93750000  0.37500000
  0.06250000  0.93750000  0.43750000
  0.06250000  0.93750000  0.50000000
  0.06250000  0.93750000  0.56250000
  0.06250000  0.93750000  0.62500000
  0.06250000  0.93750000  0.68750000
  0.06250000  0.93750000  0.75000000
  0.06250000  0.93750000  0.81250000
  0.06250000  0.93750000  0.87500000
  0.06250000  0.93750000  0.93750000
  0.12500000  0.00000000  0.00000000
  0.12500000  0.00000000  0.06250000
  0.12500000  0.00000000  0.12500000
  0.12500000  0.00000000  0.18750000
  0.12500000  0.00000000  0.25000000
  0.12500000  0.00000000  0.31250000
  0.12500000  0.00000000  0.37500000
  0.12500000  0.00000000  0.43750000
  0.12500000  0.00000000  0.50000000
  0.12500000  0.00000000  0.56250000
  0.12500000  0.00000000  0.62500000
  0.12500000  0.00000000  0.68750000
  0.12500000  0.00000000  0.75000000
  0.12500000  0.00000000  0.81250000
  0.12500000  0.00000000  0.87500000
  0.12500000  0.00000000  0.93750000
  0.12500000  0.06250000  0.00000000
  0.12500000  0.06250000  0.06250000
  0.12500000  0.06250000  0.12500000
  0.12500000  0.06250000  0.18750000
  0.12500000  0.06250000  0.25000000
  0.12500000  0.06250000  0.31250000
  0.12500000  0.06250000  0.37500000
  0.12500000  0.06250000  0.43750000
  0.12500000  0.06250000  0.50000000
  0.12500000  0.06250000  0.56250000
  0.12500000  0.06250000  0.62500000
  0.12500000  0.06250000  0.68750000
  0.12500000  0.06250000  0.75000000
  0.12500000  0.06250000  0.81250000
  0.12500000  0.06250000  0.87500000
  0.12500000  0.06250000  0.93750000
  0.12500000  0.12500000  0.00000000
  0.12500000  0.12500000  0.06250000
  0.12500000  0.12500000  0.12500000
  0.12500000  0.12500000  0.18750000
  0.12500000  0.12500000  0.25000000
  0.12500000  0.12500000  0.31250000
  0.12500000  0.12500000  0.37500000
  0.12500000  0.12500000  0.43750000
  0.12500000  0.12500000  0.50000000
  0.12500000  0.12500000  0.56250000
  0.12500000  0.12500000  0.62500000
  0.12500000  0.12500000  0.68750000
  0.12500000  0.12500000  0.75000000
  0.12500000  0.12500000  0.81250000
  0.12500000  0.12500000  0.87500000
  0.12500000  0.12500000  0.93750000
  0.12500000  0.18750000  0.00000000
  0.12500000  0.18750000  0.06250000
  0.12500000  0.18750000  0.12500000
  0.12500000  0.18750000  0.18750000
  0.12500000  0.18750000  0.25000000
  0.12500000  0.18750000  0.31250000
  0.12500000  0.18750000  0.37500000
  0.12500000  0.18750000  0.43750000
  0.12500000  0.18750000  0.50000000
  0.12500000  0.18750000  0.56250000
  0.12500000  0.18750000  0.62500000
  0.12500000  0.18750000  0.68750000
  0.12500000  0.18750000  0.75000000
  0.12500000  0.18750000  0.81250000
  0.12500000  0.18750000  0.87500000
  0.12500000  0.18750000  0.93750000
  0.12500000  0.25000000  0.00000000
  0.12500000  0.25000000  0.06250000
  0.12500000  0.25000000  0.12500000
  0.12500000  0.25000000  0.18750000
  0.12500000  0.25000000  0.25000000
  0.12500000  0.25000000  0.31250000
  0.12500000  0.25000000  0.37500000
  0.12500000  0.25000000  0.43750000
  0.12500000  0.25000000  0.50000000
  0.12500000  0.25000000  0.56250000
  0.12500000  0.25000000  0.62500000
  0.12500000  0.25000000  0.68750000
  0.12500000  0.25000000  0.75000000
  0.12500000  0.25000000  0.81250000
  0.12500000  0.25000000  0.87500000
  0.12500000  0.25000000  0.93750000
  0.12500000  0.31250000  0.00000000
  0.12500000  0.31250000  0.06250000
  0.12500000  0.31250000  0.12500000
  0.12500000  0.31250000  0.18750000
  0.12500000  0.31250000  0.25000000
  0.12500000  0.31250000  0.31250000
  0.12500000  0.31250000  0.37500000
  0.12500000  0.31250000  0.43750000
  0.12500000  0.31250000  0.50000000
  0.12500000  0.31250000  0.56250000
  0.12500000  0.31250000  0.62500000
  0.12500000  0.31250000  0.68750000
  0.12500000  0.31250000  0.75000000
  0.12500000  0.31250000  0.81250000
  0.12500000  0.31250000  0.87500000
  0.12500000  0.31250000  0.93750000
  0.12500000  0.37500000  0.00000000
  0.12500000  0.37500000  0.06250000
  0.12500000  0.37500000  0.12500000
  0.12500000  0.37500000  0.18750000
  0.12500000  0.37500000  0.25000000
  0.12500000  0.37500000  0.31250000
  0.12500000  0.37500000  0.37500000
  0.12500000  0.37500000  0.43750000
  0.12500000  0.37500000  0.50000000
  0.12500000  0.37500000  0.56250000
  0.12500000  0.37500000  0.62500000
  0.12500000  0.37500000  0.68750000
  0.12500000  0.37500000  0.75000000
  0.12500000  0.37500000  0.81250000
  0.12500000  0.37500000  0.87500000
  0.12500000  0.37500000  0.93750000
  0.12500000  0.43750000  0.00000000
  0.12500000  0.43750000  0.06250000
  0.12500000  0.43750000  0.12500000
  0.12500000  0.43750000  0.18750000
  0.12500000  0.43750000  0.25000000
  0.12500000  0.43750000  0.31250000
  0.12500000  0.43750000  0.37500000
  0.12500000  0.43750000  0.43750000
  0.12500000  0.43750000  0.50000000
  0.12500000  0.43750000  0.56250000
  0.12500000  0.43750000  0.62500000
  0.12500000  0.43750000  0.68750000
  0.12500000  0.43750000  0.75000000
  0.12500000  0.43750000  0.81250000
  0.12500000  0.43750000  0.87500000
  0.12500000  0.43750000  0.93750000
  0.12500000  0.50000000  0.00000000
  0.12500000  0.50000000  0.06250000
  0.12500000  0.50000000  0.12500000
  0.12500000  0.50000000  0.18750000
  0.12500000  0.50000000  0.25000000
  0.12500000  0.50000000  0.31250000
  0.12500000  0.50000000  0.37500000
  0.12500000  0.50000000  0.43750000
  0.12500000  0.50000000  0.50000000
  0.12500000  0.50000000  0.56250000
  0.12500000  0.50000000  0.62500000
  0.12500000  0.50000000  0.68750000
  0.12500000  0.50000000  0.75000000
  0.12500000  0.50000000  0.81250000
  0.12500000  0.50000000  0.87500000
  0.12500000  0.50000000  0.93750000
  0.12500000  0.56250000  0.00000000
  0.12500000  0.56250000  0.06250000
  0.12500000  0.56250000  0.12500000
  0.12500000  0.56250000  0.18750000
  0.12500000  0.56250000  0.25000000
  0.12500000  0.56250000  0.31250000
  0.12500000  0.56250000  0.37500000
  0.12500000  0.56250000  0.43750000
  0.12500000  0.56250000  0.50000000
  0.12500000  0.56250000  0.56250000
  0.12500000  0.56250000  0.62500000
  0.12500000  0.56250000  0.68750000
  0.12500000  0.56250000  0.75000000
  0.12500000  0.56250000  0.81250000
  0.12500000  0.56250000  0.87500000
  0.12500000  0.56250000  0.93750000
  0.12500000  0.62500000  0.00000000
  0.12500000  0.62500000  0.06250000
  0.12500000  0.62500000  0.12500000
  0.12500000  0.62500000  0.18750000
  0.12500000  0.62500000  0.25000000
  0.12500000  0.62500000  0.31250000
  0.12500000  0.62500000  0.37500000
  0.12500000  0.62500000  0.43750000
  0.12500000  0.62500000  0.50000000
  0.12500000  0.62500000  0.56250000
  0.12500000  0.62500000  0.62500000
  0.12500000  0.62500000  0.68750000
  0.12500000  0.62500000  0.75000000
  0.12500000  0.62500000  0.81250000
  0.12500000  0.62500000  0.87500000
  0.12500000  0.62500000  0.93750000
  0.12500000  0.68750000  0.00000000
  0.12500000  0.68750000  0.06250000
  0.12500000  0.68750000  0.12500000
  0.12500000  0.68750000  0.18750000
  0.12500000  0.68750000  0.25000000
  0.12500000  0.68750000  0.31250000
  0.12500000  0.68750000  0.37500000
  0.12500000  0.68750000  0.43750000
  0.12500000  0.68750000  0.50000000
  0.12500000  0.68750000  0.56250000
  0.12500000  0.68750000  0.62500000
  0.12500000  0.68750000  0.68750000
  0.12500000  0.68750000  0.75000000
  0.12500000  0.68750000  0.81250000
  0.12500000  0.68750000  0.87500000
  0.12500000  0.68750000  0.93750000
  0.12500000  0.75000000  0.00000000
  0.12500000  0.75000000  0.06250000
  0.12500000  0.75000000  0.12500000
  0.12500000  0.75000000  0.18750000
  0.12500000  0.75000000  0.25000000
  0.12500000  0.75000000  0.31250000
  0.12500000  0.75000000  0.37500000
  0.12500000  0.75000000  0.43750000
  0.12500000  0.75000000  0.50000000
  0.12500000  0.75000000  0.56250000
  0.12500000  0.75000000  0.62500000
  0.12500000  0.75000000  0.68750000
  0.12500000  0.75000000  0.75000000
  0.12500000  0.75000000  0.81250000
  0.12500000  0.75000000  0.87500000
  0.12500000  0.75000000  0.93750000
  0.12500000  0.81250000  0.00000000
  0.12500000  0.81250000  0.06250000
  0.12500000  0.81250000  0.12500000
  0.12500000  0.81250000  0.18750000
  0.12500000  0.81250000  0.25000000
  0.12500000  0.81250000  0.31250000
  0.12500000  0.81250000  0.37500000
  0.12500000  0.81250000  0.43750000
  0.12500000  0.81250000  0.50000000
  0.12500000  0.81250000  0.56250000
  0.12500000  0.81250000  0.62500000
  0.12500000  0.81250000  0.68750000
  0.12500000  0.81250000  0.75000000
  0.12500000  0.81250000  0.81250000
  0.12500000  0.81250000  0.87500000
  0.12500000  0.81250000  0.93750000
  0.12500000  0.87500000  0.00000000
  0.12500000  0.87500000  0.06250000
  0.12500000  0.87500000  0.12500000
  0.12500000  0.87500000  0.18750000
  0.12500000  0.87500000  0.25000000
  0.12500000  0.87500000  0.31250000
  0.12500000  0.87500000  0.37500000
  0.12500000  0.87500000  0.43750000
  0.12500000  0.87500000  0.50000000
  0.12500000  0.87500000  0.56250000
  0.12500000  0.87500000  0.62500000
  0.12500000  0.87500000  0.68750000
  0.12500000  0.87500000  0.75000000
  0.12500000  0.87500000  0.81250000
  0.12500000  0.87500000  0.87500000
  0.12500000  0.87500000  0.93750000
  0.12500000  0.93750000  0.00000000
  0.12500000  0.93750000  0.06250000
  0.12500000  0.93750000  0.12500000
  0.12500000  0.93750000  0.18750000
  0.12500000  0.93750000  0.25000000
  0.12500000  0.93750000  0.31250000
  0.12500000  0.93750000  0.37500000
  0.12500000  0.93750000  0.43750000
  0.12500000  0.93750000  0.50000000
  0.12500000  0.93750000  0.56250000
  0.12500000  0.93750000  0.62500000
  0.12500000  0.93750000  0.68750000
  0.12500000  0.93750000  0.75000000
  0.12500000  0.93750000  0.81250000
  0.12500000  0.93750000  0.87500000
  0.12500000  0.93750000  0.93750000
  0.18750000  0.00000000  0.00000000
  0.18750000  0.00000000  0.06250000
  0.18750000  0.00000000  0.12500000
  0.18750000  0.00000000  0.18750000
  0.18750000  0.00000000  0.25000000
  0.18750000  0.00000000  0.31250000
  0.18750000  0.00000000  0.37500000
  0.18750000  0.00000000  0.43750000
  0.18750000  0.00000000  0.50000000
  0.18750000  0.00000000  0.56250000