 &control
    calculation='nscf'
    pseudo_dir = '.',
    outdir='.'
    prefix='Co'
    verbosity = 'high'
 /
 &system
    ibrav = 4, celldm(1) = 4.7377, celldm(3)=1.6232, nat= 2, ntyp= 1,
    ecutwfc = 90.0,
    lspinorb=.true.,
    noncolin=.true.,
    starting_magnetization(1) = 0.7
    occupations='smearing', smearing='cold', degauss=0.02
    nbnd = 96
    nosym = .true.
 /
 &electrons
    diagonalization='david'
    conv_thr=1.0e-10
 /
ATOMIC_SPECIES
 Co 58.933 Co_ONCV_PBE_FR-1.0.upf
ATOMIC_POSITIONS crystal
 Co 0.3333333333 0.6666666667 0.25
 Co 0.6666666667 0.3333333333 0.75
K_POINTS crystal
   600
    0.000000    0.000000    0.000000   1.0
   -0.005000    0.005000    0.000000   1.0
   -0.010000    0.010000    0.000000   1.0
   -0.015000    0.015000    0.000000   1.0
   -0.020000    0.020000    0.000000   1.0
   -0.025000    0.025000    0.000000   1.0
   -0.030000    0.030000    0.000000   1.0
   -0.035000    0.035000    0.000000   1.0
   -0.040000    0.040000    0.000000   1.0
   -0.045000    0.045000    0.000000   1.0
   -0.050000    0.050000    0.000000   1.0
   -0.055000    0.055000    0.000000   1.0
   -0.060000    0.060000    0.000000   1.0
   -0.065000    0.065000    0.000000   1.0
   -0.070000    0.070000    0.000000   1.0
   -0.075000    0.075000    0.000000   1.0
   -0.080000    0.080000    0.000000   1.0
   -0.085000    0.085000    0.000000   1.0
   -0.090000    0.090000    0.000000   1.0
   -0.095000    0.095000    0.000000   1.0
   -0.100000    0.100000    0.000000   1.0
   -0.105000    0.105000    0.000000   1.0
   -0.110000    0.110000    0.000000   1.0
   -0.115000    0.115000    0.000000   1.0
   -0.120000    0.120000    0.000000   1.0
   -0.125000    0.125000    0.000000   1.0
   -0.130000    0.130000    0.000000   1.0
   -0.135000    0.135000    0.000000   1.0
   -0.140000    0.140000    0.000000   1.0
   -0.145000    0.145000    0.000000   1.0
   -0.150000    0.150000    0.000000   1.0
   -0.155000    0.155000    0.000000   1.0
   -0.160000    0.160000    0.000000   1.0
   -0.165000    0.165000    0.000000   1.0
   -0.170000    0.170000    0.000000   1.0
   -0.175000    0.175000    0.000000   1.0
   -0.180000    0.180000    0.000000   1.0
   -0.185000    0.185000    0.000000   1.0
   -0.190000    0.190000    0.000000   1.0
   -0.195000    0.195000    0.000000   1.0
   -0.200000    0.200000    0.000000   1.0
   -0.205000    0.205000    0.000000   1.0
   -0.210000    0.210000    0.000000   1.0
   -0.215000    0.215000    0.000000   1.0
   -0.220000    0.220000    0.000000   1.0
   -0.225000    0.225000    0.000000   1.0
   -0.230000    0.230000    0.000000   1.0
   -0.235000    0.235000    0.000000   1.0
   -0.240000    0.240000    0.000000   1.0
   -0.245000    0.245000    0.000000   1.0
   -0.250000    0.250000    0.000000   1.0
   -0.255000    0.255000    0.000000   1.0
   -0.260000    0.260000    0.000000   1.0
   -0.265000    0.265000    0.000000   1.0
   -0.270000    0.270000    0.000000   1.0
   -0.275000    0.275000    0.000000   1.0
   -0.280000    0.280000    0.000000   1.0
   -0.285000    0.285000    0.000000   1.0
   -0.290000    0.290000    0.000000   1.0
   -0.295000    0.295000    0.000000   1.0
   -0.300000    0.300000    0.000000   1.0
   -0.305000    0.305000    0.000000   1.0
   -0.310000    0.310000    0.000000   1.0
   -0.315000    0.315000    0.000000   1.0
   -0.320000    0.320000    0.000000   1.0
   -0.325000    0.325000    0.000000   1.0
   -0.330000    0.330000    0.000000   1.0
   -0.335000    0.335000    0.000000   1.0
   -0.340000    0.340000    0.000000   1.0
   -0.345000    0.345000    0.000000   1.0
   -0.350000    0.350000    0.000000   1.0
   -0.355000    0.355000    0.000000   1.0
   -0.360000    0.360000    0.000000   1.0
   -0.365000    0.365000    0.000000   1.0
   -0.370000    0.370000    0.000000   1.0
   -0.375000    0.375000    0.000000   1.0
   -0.380000    0.380000    0.000000   1.0
   -0.385000    0.385000    0.000000   1.0
   -0.390000    0.390000    0.000000   1.0
   -0.395000    0.395000    0.000000   1.0
   -0.400000    0.400000    0.000000   1.0
   -0.405000    0.405000    0.000000   1.0
   -0.410000    0.410000    0.000000   1.0
   -0.415000    0.415000    0.000000   1.0
   -0.420000    0.420000    0.000000   1.0
   -0.425000    0.425000    0.000000   1.0
   -0.430000    0.430000    0.000000   1.0
   -0.435000    0.435000    0.000000   1.0
   -0.440000    0.440000    0.000000   1.0
   -0.445000    0.445000    0.000000   1.0
   -0.450000    0.450000    0.000000   1.0
   -0.455000    0.455000    0.000000   1.0
   -0.460000    0.460000    0.000000   1.0
   -0.465000    0.465000    0.000000   1.0
   -0.470000    0.470000    0.000000   1.0
   -0.475000    0.475000    0.000000   1.0
   -0.480000    0.480000    0.000000   1.0
   -0.485000    0.485000    0.000000   1.0
   -0.490000    0.490000    0.000000   1.0
   -0.495000    0.495000    0.000000   1.0
   -0.500000    0.500000    0.000000   1.0
   -0.502874    0.497126    0.000000   1.0
   -0.505748    0.494252    0.000000   1.0
   -0.508622    0.491378    0.000000   1.0
   -0.511497    0.488503    0.000000   1.0
   -0.514371    0.485629    0.000000   1.0
   -0.517245    0.482755    0.000000   1.0
   -0.520119    0.479881    0.000000   1.0
   -0.522993    0.477007    0.000000   1.0
   -0.525867    0.474133    0.000000   1.0
   -0.528741    0.471259    0.000000   1.0
   -0.531616    0.468384    0.000000   1.0
   -0.534490    0.465510    0.000000   1.0
   -0.537364    0.462636    0.000000   1.0
   -0.540238    0.459762    0.000000   1.0
   -0.543112    0.456888    0.000000   1.0
   -0.545986    0.454014    0.000000   1.0
   -0.548860    0.451140    0.000000   1.0
   -0.551734    0.448266    0.000000   1.0
   -0.554609    0.445391    0.000000   1.0
   -0.557483    0.442517    0.000000   1.0
   -0.560357    0.439643    0.000000   1.0
   -0.563231    0.436769    0.000000   1.0
   -0.566105    0.433895    0.000000   1.0
   -0.568979    0.431021    0.000000   1.0
   -0.571853    0.428147    0.000000   1.0
   -0.574728    0.425272    0.000000   1.0
   -0.577602    0.422398    0.000000   1.0
   -0.580476    0.419524    0.000000   1.0
   -0.583350    0.416650    0.000000   1.0
   -0.586224    0.413776    0.000000   1.0
   -0.589098    0.410902    0.000000   1.0
   -0.591972    0.408028    0.000000   1.0
   -0.594847    0.405153    0.000000   1.0
   -0.597721    0.402279    0.000000   1.0
   -0.600595    0.399405    0.000000   1.0
   -0.603469    0.396531    0.000000   1.0
   -0.606343    0.393657    0.000000   1.0
   -0.609217    0.390783    0.000000   1.0
   -0.612091    0.387909    0.000000   1.0
   -0.614966    0.385034    0.000000   1.0
   -0.617840    0.382160    0.000000   1.0
   -0.620714    0.379286    0.000000   1.0
   -0.623588    0.376412    0.000000   1.0
   -0.626462    0.373538    0.000000   1.0
   -0.629336    0.370664    0.000000   1.0
   -0.632210    0.367790    0.000000   1.0
   -0.635084    0.364916    0.000000   1.0
   -0.637959    0.362041    0.000000   1.0
   -0.640833    0.359167    0.000000   1.0
   -0.643707    0.356293    0.000000   1.0
   -0.646581    0.353419    0.000000   1.0
   -0.649455    0.350545    0.000000   1.0
   -0.652329    0.347671    0.000000   1.0
   -0.655203    0.344797    0.000000   1.0
   -0.658078    0.341922    0.000000   1.0
   -0.660952    0.339048    0.000000   1.0
   -0.663826    0.336174    0.000000   1.0
   -0.666700    0.333300    0.000000   1.0
   -0.660903    0.330402    0.000000   1.0
   -0.655105    0.327503    0.000000   1.0
   -0.649308    0.324605    0.000000   1.0
   -0.643510    0.321707    0.000000   1.0
   -0.637713    0.318809    0.000000   1.0
   -0.631916    0.315910    0.000000   1.0
   -0.626118    0.313012    0.000000   1.0
   -0.620321    0.310114    0.000000   1.0
   -0.614523    0.307216    0.000000   1.0
   -0.608726    0.304317    0.000000   1.0
   -0.602929    0.301419    0.000000   1.0
   -0.597131    0.298521    0.000000   1.0
   -0.591334    0.295623    0.000000   1.0
   -0.585537    0.292724    0.000000   1.0
   -0.579739    0.289826    0.000000   1.0
   -0.573942    0.286928    0.000000   1.0
   -0.568144    0.284030    0.000000   1.0
   -0.562347    0.281131    0.000000   1.0
   -0.556550    0.278233    0.000000   1.0
   -0.550752    0.275335    0.000000   1.0
   -0.544955    0.272437    0.000000   1.0
   -0.539157    0.269538    0.000000   1.0
   -0.533360    0.266640    0.000000   1.0
   -0.527563    0.263742    0.000000   1.0
   -0.521765    0.260843    0.000000   1.0
   -0.515968    0.257945    0.000000   1.0
   -0.510170    0.255047    0.000000   1.0
   -0.504373    0.252149    0.000000   1.0
   -0.498576    0.249250    0.000000   1.0
   -0.492778    0.246352    0.000000   1.0
   -0.486981    0.243454    0.000000   1.0
   -0.481183    0.240556    0.000000   1.0
   -0.475386    0.237657    0.000000   1.0
   -0.469589    0.234759    0.000000   1.0
   -0.463791    0.231861    0.000000   1.0
   -0.457994    0.228963    0.000000   1.0
   -0.452197    0.226064    0.000000   1.0
   -0.446399    0.223166    0.000000   1.0
   -0.440602    0.220268    0.000000   1.0
   -0.434804    0.217370    0.000000   1.0
   -0.429007    0.214471    0.000000   1.0
   -0.423210    0.211573    0.000000   1.0
   -0.417412    0.208675    0.000000   1.0
   -0.411615    0.205777    0.000000   1.0
   -0.405817    0.202878    0.000000   1.0
   -0.400020    0.199980    0.000000   1.0
   -0.394223    0.197082    0.000000   1.0
   -0.388425    0.194183    0.000000   1.0
   -0.382628    0.191285    0.000000   1.0
   -0.376830    0.188387    0.000000   1.0
   -0.371033    0.185489    0.000000   1.0
   -0.365236    0.182590    0.000000   1.0
   -0.359438    0.179692    0.000000   1.0
   -0.353641    0.176794    0.000000   1.0
   -0.347843    0.173896    0.000000   1.0
   -0.342046    0.170997    0.000000   1.0
   -0.336249    0.168099    0.000000   1.0
   -0.330451    0.165201    0.000000   1.0
   -0.324654    0.162303    0.000000   1.0
   -0.318857    0.159404    0.000000   1.0
   -0.313059    0.156506    0.000000   1.0
   -0.307262    0.153608    0.000000   1.0
   -0.301464    0.150710    0.000000   1.0
   -0.295667    0.147811    0.000000   1.0
   -0.289870    0.144913    0.000000   1.0
   -0.284072    0.142015    0.000000   1.0
   -0.278275    0.139117    0.000000   1.0
   -0.272477    0.136218    0.000000   1.0
   -0.266680    0.133320    0.000000   1.0
   -0.260883    0.130422    0.000000   1.0
   -0.255085    0.127523    0.000000   1.0
   -0.249288    0.124625    0.000000   1.0
   -0.243490    0.121727    0.000000   1.0
   -0.237693    0.118829    0.000000   1.0
   -0.231896    0.115930    0.000000   1.0
   -0.226098    0.113032    0.000000   1.0
   -0.220301    0.110134    0.000000   1.0
   -0.214503    0.107236    0.000000   1.0
   -0.208706    0.104337    0.000000   1.0
   -0.202909    0.101439    0.000000   1.0
   -0.197111    0.098541    0.000000   1.0
   -0.191314    0.095643    0.000000   1.0
   -0.185517    0.092744    0.000000   1.0
   -0.179719    0.089846    0.000000   1.0
   -0.173922    0.086948    0.000000   1.0
   -0.168124    0.084050    0.000000   1.0
   -0.162327    0.081151    0.000000   1.0
   -0.156530    0.078253    0.000000   1.0
   -0.150732    0.075355    0.000000   1.0
   -0.144935    0.072457    0.000000   1.0
   -0.139137    0.069558    0.000000   1.0
   -0.133340    0.066660    0.000000   1.0
   -0.127543    0.063762    0.000000   1.0
   -0.121745    0.060863    0.000000   1.0
   -0.115948    0.057965    0.000000   1.0
   -0.110150    0.055067    0.000000   1.0
   -0.104353    0.052169    0.000000   1.0
   -0.098556    0.049270    0.000000   1.0
   -0.092758    0.046372    0.000000   1.0
   -0.086961    0.043474    0.000000   1.0
   -0.081163    0.040576    0.000000   1.0
   -0.075366    0.037677    0.000000   1.0
   -0.069569    0.034779    0.000000   1.0
   -0.063771    0.031881    0.000000   1.0
   -0.057974    0.028983    0.000000   1.0
   -0.052177    0.026084    0.000000   1.0
   -0.046379    0.023186    0.000000   1.0
   -0.040582    0.020288    0.000000   1.0
   -0.034784    0.017390    0.000000   1.0
   -0.028987    0.014491    0.000000   1.0
   -0.023190    0.011593    0.000000   1.0
   -0.017392    0.008695    0.000000   1.0
   -0.011595    0.005797    0.000000   1.0
   -0.005797    0.002898    0.000000   1.0
    0.000000    0.000000    0.000000   1.0
    0.000000    0.000000    0.009434   1.0
    0.000000    0.000000    0.018868   1.0
    0.000000    0.000000    0.028302   1.0
    0.000000    0.000000    0.037736   1.0
    0.000000    0.000000    0.047170   1.0
    0.000000    0.000000    0.056604   1.0
    0.000000    0.000000    0.066038   1.0
    0.000000    0.000000    0.075472   1.0
    0.000000    0.000000    0.084906   1.0
    0.000000    0.000000    0.094340   1.0
    0.000000    0.000000    0.103774   1.0
    0.000000    0.000000    0.113208   1.0
    0.000000    0.000000    0.122642   1.0
    0.000000    0.000000    0.132075   1.0
    0.000000    0.000000    0.141509   1.0
    0.000000    0.000000    0.150943   1.0
    0.000000    0.000000    0.160377   1.0
    0.000000    0.000000    0.169811   1.0
    0.000000    0.000000    0.179245   1.0
    0.000000    0.000000    0.188679   1.0
    0.000000    0.000000    0.198113   1.0
    0.000000    0.000000    0.207547   1.0
    0.000000    0.000000    0.216981   1.0
    0.000000    0.000000    0.226415   1.0
    0.000000    0.000000    0.235849   1.0
    0.000000    0.000000    0.245283   1.0
    0.000000    0.000000    0.254717   1.0
    0.000000    0.000000    0.264151   1.0
    0.000000    0.000000    0.273585   1.0
    0.000000    0.000000    0.283019   1.0
    0.000000    0.000000    0.292453   1.0
    0.000000    0.000000    0.301887   1.0
    0.000000    0.000000    0.311321   1.0
    0.000000    0.000000    0.320755   1.0
    0.000000    0.000000    0.330189   1.0
    0.000000    0.000000    0.339623   1.0
    0.000000    0.000000    0.349057   1.0
    0.000000    0.000000    0.358491   1.0
    0.000000    0.000000    0.367925   1.0
    0.000000    0.000000    0.377358   1.0
    0.000000    0.000000    0.386792   1.0
    0.000000    0.000000    0.396226   1.0
    0.000000    0.000000    0.405660   1.0
    0.000000    0.000000    0.415094   1.0
    0.000000    0.000000    0.424528   1.0
    0.000000    0.000000    0.433962   1.0
    0.000000    0.000000    0.443396   1.0
    0.000000    0.000000    0.452830   1.0
    0.000000    0.000000    0.462264   1.0
    0.000000    0.000000    0.471698   1.0
    0.000000    0.000000    0.481132   1.0
    0.000000    0.000000    0.490566   1.0
    0.000000    0.000000    0.500000   1.0
   -0.005000    0.005000    0.500000   1.0
   -0.010000    0.010000    0.500000   1.0
   -0.015000    0.015000    0.500000   1.0
   -0.020000    0.020000    0.500000   1.0
   -0.025000    0.025000    0.500000   1.0
   -0.030000    0.030000    0.500000   1.0
   -0.035000    0.035000    0.500000   1.0
   -0.040000    0.040000    0.500000   1.0
   -0.045000    0.045000    0.500000   1.0
   -0.050000    0.050000    0.500000   1.0
   -0.055000    0.055000    0.500000   1.0
   -0.060000    0.060000    0.500000   1.0
   -0.065000    0.065000    0.500000   1.0
   -0.070000    0.070000    0.500000   1.0
   -0.075000    0.075000    0.500000   1.0
   -0.080000    0.080000    0.500000   1.0
   -0.085000    0.085000    0.500000   1.0
   -0.090000    0.090000    0.500000   1.0
   -0.095000    0.095000    0.500000   1.0
   -0.100000    0.100000    0.500000   1.0
   -0.105000    0.105000    0.500000   1.0
   -0.110000    0.110000    0.500000   1.0
   -0.115000    0.115000    0.500000   1.0
   -0.120000    0.120000    0.500000   1.0
   -0.125000    0.125000    0.500000   1.0
   -0.130000    0.130000    0.500000   1.0
   -0.135000    0.135000    0.500000   1.0
   -0.140000    0.140000    0.500000   1.0
   -0.145000    0.145000    0.500000   1.0
   -0.150000    0.150000    0.500000   1.0
   -0.155000    0.155000    0.500000   1.0
   -0.160000    0.160000    0.500000   1.0
   -0.165000    0.165000    0.500000   1.0
   -0.170000    0.170000    0.500000   1.0
   -0.175000    0.175000    0.500000   1.0
   -0.180000    0.180000    0.500000   1.0
   -0.185000    0.185000    0.500000   1.0
   -0.190000    0.190000    0.500000   1.0
   -0.195000    0.195000    0.500000   1.0
   -0.200000    0.200000    0.500000   1.0
   -0.205000    0.205000    0.500000   1.0
   -0.210000    0.210000    0.500000   1.0
   -0.215000    0.215000    0.500000   1.0
   -0.220000    0.220000    0.500000   1.0
   -0.225000    0.225000    0.500000   1.0
   -0.230000    0.230000    0.500000   1.0
   -0.235000    0.235000    0.500000   1.0
   -0.240000    0.240000    0.500000   1.0
   -0.245000    0.245000    0.500000   1.0
   -0.250000    0.250000    0.500000   1.0
   -0.255000    0.255000    0.500000   1.0
   -0.260000    0.260000    0.500000   1.0
   -0.265000    0.265000    0.500000   1.0
   -0.270000    0.270000    0.500000   1.0
   -0.275000    0.275000    0.500000   1.0
   -0.280000    0.280000    0.500000   1.0
   -0.285000    0.285000    0.500000   1.0
   -0.290000    0.290000    0.500000   1.0
   -0.295000    0.295000    0.500000   1.0
   -0.300000    0.300000    0.500000   1.0
   -0.305000    0.305000    0.500000   1.0
   -0.310000    0.310000    0.500000   1.0
   -0.315000    0.315000    0.500000   1.0
   -0.320000    0.320000    0.500000   1.0
   -0.325000    0.325000    0.500000   1.0
   -0.330000    0.330000    0.500000   1.0
   -0.335000    0.335000    0.500000   1.0
   -0.340000    0.340000    0.500000   1.0
   -0.345000    0.345000    0.500000   1.0
   -0.350000    0.350000    0.500000   1.0
   -0.355000    0.355000    0.500000   1.0
   -0.360000    0.360000    0.500000   1.0
   -0.365000    0.365000    0.500000   1.0
   -0.370000    0.370000    0.500000   1.0
   -0.375000    0.375000    0.500000   1.0
   -0.380000    0.380000    0.500000   1.0
   -0.385000    0.385000    0.500000   1.0
   -0.390000    0.390000    0.500000   1.0
   -0.395000    0.395000    0.500000   1.0
   -0.400000    0.400000    0.500000   1.0
   -0.405000    0.405000    0.500000   1.0
   -0.410000    0.410000    0.500000   1.0
   -0.415000    0.415000    0.500000   1.0
   -0.420000    0.420000    0.500000   1.0
   -0.425000    0.425000    0.500000   1.0
   -0.430000    0.430000    0.500000   1.0
   -0.435000    0.435000    0.500000   1.0
   -0.440000    0.440000    0.500000   1.0
   -0.445000    0.445000    0.500000   1.0
   -0.450000    0.450000    0.500000   1.0
   -0.455000    0.455000    0.500000   1.0
   -0.460000    0.460000    0.500000   1.0
   -0.465000    0.465000    0.500000   1.0
   -0.470000    0.470000    0.500000   1.0
   -0.475000    0.475000    0.500000   1.0
   -0.480000    0.480000    0.500000   1.0
   -0.485000    0.485000    0.500000   1.0
   -0.490000    0.490000    0.500000   1.0
   -0.495000    0.495000    0.500000   1.0
   -0.500000    0.500000    0.500000   1.0
   -0.502874    0.497126    0.500000   1.0
   -0.505748    0.494252    0.500000   1.0
   -0.508622    0.491378    0.500000   1.0
   -0.511497    0.488503    0.500000   1.0
   -0.514371    0.485629    0.500000   1.0
   -0.517245    0.482755    0.500000   1.0
   -0.520119    0.479881    0.500000   1.0
   -0.522993    0.477007    0.500000   1.0
   -0.525867    0.474133    0.500000   1.0
   -0.528741    0.471259    0.500000   1.0
   -0.531616    0.468384    0.500000   1.0
   -0.534490    0.465510    0.500000   1.0
   -0.537364    0.462636    0.500000   1.0
   -0.540238    0.459762    0.500000   1.0
   -0.543112    0.456888    0.500000   1.0
   -0.545986    0.454014    0.500000   1.0
   -0.548860    0.451140    0.500000   1.0
   -0.551734    0.448266    0.500000   1.0
   -0.554609    0.445391    0.500000   1.0
   -0.557483    0.442517    0.500000   1.0
   -0.560357    0.439643    0.500000   1.0
   -0.563231    0.436769    0.500000   1.0
   -0.566105    0.433895    0.500000   1.0
   -0.568979    0.431021    0.500000   1.0
   -0.571853    0.428147    0.500000   1.0
   -0.574728    0.425272    0.500000   1.0
   -0.577602    0.422398    0.500000   1.0
   -0.580476    0.419524    0.500000   1.0
   -0.583350    0.416650    0.500000   1.0
   -0.586224    0.413776    0.500000   1.0
   -0.589098    0.410902    0.500000   1.0
   -0.591972    0.408028    0.500000   1.0
   -0.594847    0.405153    0.500000   1.0
   -0.597721    0.402279    0.500000   1.0
   -0.600595    0.399405    0.500000   1.0
   -0.603469    0.396531    0.500000   1.0
   -0.606343    0.393657    0.500000   1.0
   -0.609217    0.390783    0.500000   1.0
   -0.612091    0.387909    0.500000   1.0
   -0.614966    0.385034    0.500000   1.0
   -0.617840    0.382160    0.500000   1.0
   -0.620714    0.379286    0.500000   1.0
   -0.623588    0.376412    0.500000   1.0
   -0.626462    0.373538    0.500000   1.0
   -0.629336    0.370664    0.500000   1.0
   -0.632210    0.367790    0.500000   1.0
   -0.635084    0.364916    0.500000   1.0
   -0.637959    0.362041    0.500000   1.0
   -0.640833    0.359167    0.500000   1.0
   -0.643707    0.356293    0.500000   1.0
   -0.646581    0.353419    0.500000   1.0
   -0.649455    0.350545    0.500000   1.0
   -0.652329    0.347671    0.500000   1.0
   -0.655203    0.344797    0.500000   1.0
   -0.658078    0.341922    0.500000   1.0
   -0.660952    0.339048    0.500000   1.0
   -0.663826    0.336174    0.500000   1.0
   -0.666700    0.333300    0.500000   1.0
   -0.660903    0.330402    0.500000   1.0
   -0.655105    0.327503    0.500000   1.0
   -0.649308    0.324605    0.500000   1.0
   -0.643510    0.321707    0.500000   1.0
   -0.637713    0.318809    0.500000   1.0
   -0.631916    0.315910    0.500000   1.0
   -0.626118    0.313012    0.500000   1.0
   -0.620321    0.310114    0.500000   1.0
   -0.614523    0.307216    0.500000   1.0
   -0.608726    0.304317    0.500000   1.0
   -0.602929    0.301419    0.500000   1.0
   -0.597131    0.298521    0.500000   1.0
   -0.591334    0.295623    0.500000   1.0
   -0.585537    0.292724    0.500000   1.0
   -0.579739    0.289826    0.500000   1.0
   -0.573942    0.286928    0.500000   1.0
   -0.568144    0.284030    0.500000   1.0
   -0.562347    0.281131    0.500000   1.0
   -0.556550    0.278233    0.500000   1.0
   -0.550752    0.275335    0.500000   1.0
   -0.544955    0.272437    0.500000   1.0
   -0.539157    0.269538    0.500000   1.0
   -0.533360    0.266640    0.500000   1.0
   -0.527563    0.263742    0.500000   1.0
   -0.521765    0.260843    0.500000   1.0
   -0.515968    0.257945    0.500000   1.0
   -0.510170    0.255047    0.500000   1.0
   -0.504373    0.252149    0.500000   1.0
   -0.498576    0.249250    0.500000   1.0
   -0.492778    0.246352    0.500000   1.0
   -0.486981    0.243454    0.500000   1.0
   -0.481183    0.240556    0.500000   1.0
   -0.475386    0.237657    0.500000   1.0
   -0.469589    0.234759    0.500000   1.0
   -0.463791    0.231861    0.500000   1.0
   -0.457994    0.228963    0.500000   1.0
   -0.452197    0.226064    0.500000   1.0
   -0.446399    0.223166    0.500000   1.0
   -0.440602    0.220268    0.500000   1.0
   -0.434804    0.217370    0.500000   1.0
   -0.429007    0.214471    0.500000   1.0
   -0.423210    0.211573    0.500000   1.0
   -0.417412    0.208675    0.500000   1.0
   -0.411615    0.205777    0.500000   1.0
   -0.405817    0.202878    0.500000   1.0
   -0.400020    0.199980    0.500000   1.0
   -0.394223    0.197082    0.500000   1.0
   -0.388425    0.194183    0.500000   1.0
   -0.382628    0.191285    0.500000   1.0
   -0.376830    0.188387    0.500000   1.0
   -0.371033    0.185489    0.500000   1.0
   -0.365236    0.182590    0.500000   1.0
   -0.359438    0.179692    0.500000   1.0
   -0.353641    0.176794    0.500000   1.0
   -0.347843    0.173896    0.500000   1.0
   -0.342046    0.170997    0.500000   1.0
   -0.336249    0.168099    0.500000   1.0
   -0.330451    0.165201    0.500000   1.0
   -0.324654    0.162303    0.500000   1.0
   -0.318857    0.159404    0.500000   1.0
   -0.313059    0.156506    0.500000   1.0
   -0.307262    0.153608    0.500000   1.0
   -0.301464    0.150710    0.500000   1.0
   -0.295667    0.147811    0.500000   1.0
   -0.289870    0.144913    0.500000   1.0
   -0.284072    0.142015    0.500000   1.0
   -0.278275    0.139117    0.500000   1.0
   -0.272477    0.136218    0.500000   1.0
   -0.266680    0.133320    0.500000   1.0
   -0.260883    0.130422    0.500000   1.0
   -0.255085    0.127523    0.500000   1.0
   -0.249288    0.124625    0.500000   1.0
   -0.243490    0.121727    0.500000   1.0
   -0.237693    0.118829    0.500000   1.0
   -0.231896    0.115930    0.500000   1.0
   -0.226098    0.113032    0.500000   1.0
   -0.220301    0.110134    0.500000   1.0
   -0.214503    0.107236    0.500000   1.0
   -0.208706    0.104337    0.500000   1.0
   -0.202909    0.101439    0.500000   1.0
   -0.197111    0.098541    0.500000   1.0
   -0.191314    0.095643    0.500000   1.0
   -0.185517    0.092744    0.500000   1.0
   -0.179719    0.089846    0.500000   1.0
   -0.173922    0.086948    0.500000   1.0
   -0.168124    0.084050    0.500000   1.0
   -0.162327    0.081151    0.500000   1.0
   -0.156530    0.078253    0.500000   1.0
   -0.150732    0.075355    0.500000   1.0
   -0.144935    0.072457    0.500000   1.0
   -0.139137    0.069558    0.500000   1.0
   -0.133340    0.066660    0.500000   1.0
   -0.127543    0.063762    0.500000   1.0
   -0.121745    0.060863    0.500000   1.0
   -0.115948    0.057965    0.500000   1.0
   -0.110150    0.055067    0.500000   1.0
   -0.104353    0.052169    0.500000   1.0
   -0.098556    0.049270    0.500000   1.0
   -0.092758    0.046372    0.500000   1.0
   -0.086961    0.043474    0.500000   1.0
   -0.081163    0.040576    0.500000   1.0
   -0.075366    0.037677    0.500000   1.0
   -0.069569    0.034779    0.500000   1.0
   -0.063771    0.031881    0.500000   1.0
   -0.057974    0.028983    0.500000   1.0
   -0.052177    0.026084    0.500000   1.0
   -0.046379    0.023186    0.500000   1.0
   -0.040582    0.020288    0.500000   1.0
   -0.034784    0.017390    0.500000   1.0
   -0.028987    0.014491    0.500000   1.0
   -0.023190    0.011593    0.500000   1.0
   -0.017392    0.008695    0.500000   1.0
   -0.011595    0.005797    0.500000   1.0
   -0.005797    0.002898    0.500000   1.0
    0.000000    0.000000    0.500000   1.0
